! 2-port S-parameters written by miniscope-char acquisition
! instrument: Pico Technology Ltd,PicoVNA-106,10080,5.3.4
! transport: scpi
! endpoint: 127.0.0.1:5025
! demo: false
! calibration: user
! calibration_file: June 2026 Short cable calibration.calx
# HZ S RI R 50
300000.000000  0.0596140298 0.00704018483  0.944393899 -0.0153459384  0.938106628 -0.00741413565  0.0588618976 0.00412312199
30298500.000000  0.110220871 -0.0412238202  0.281651074 -0.845382858  0.28409853 -0.844923701  0.108279276 -0.0407053587
60297000.000000  0.00558683449 0.00122604831  -0.644004375 -0.556118112  -0.641778687 -0.558355507  -0.00537701211 -0.00339060663
90295500.000000  0.074816794 0.028209191  -0.733256202 0.352880774  -0.735294603 0.350478118  0.0427495304 0.0432606074
120294000.000000  -0.0103523051 -0.0209856106  0.0270609294 0.794245549  0.0248316216 0.794716212  -0.017042856 0.0117834483
150292500.000000  -0.00371106688 0.0836769292  0.69990275 0.280227262  0.700081131 0.282061675  -0.0106484091 0.0837899171
180291000.000000  0.00915208219 -0.00735897106  0.543250173 -0.517048641  0.545587856 -0.516082539  -0.0189773964 0.0152095891
210289500.000000  -0.0772549004 0.0396706398  -0.242964413 -0.686820743  -0.241396261 -0.687811299  -0.090392093 0.0397211405
240288000.000000  0.0083843128 0.020053891  -0.711679344 -0.0618658001  -0.712836014 -0.0638146313  -0.0496334434 0.0183905561
270286500.000000  -0.0993595764 -0.0606950829  -0.337158143 0.604974001  -0.338579849 0.603804706  -0.139644124 -0.0220797969
300285000.000000  -0.0863781694 0.0410661786  0.395437806 0.549512136  0.394384329 0.550954766  -0.107699723 0.0487855702
330283500.000000  -0.0286762188 -0.0665232922  0.651347643 -0.135468464  0.65251446 -0.133640969  -0.0805096672 -0.0596539212
360282000.000000  -0.119991767 -0.0474007237  0.141294849 -0.629237935  0.142626011 -0.628831408  -0.146801826 -0.0168199744
390280500.000000  -0.01414473 -0.0701400593  -0.502995953 -0.404382364  -0.50317078 -0.406283606  -0.022042345 -0.0539336298
420279000.000000  -0.062699858 -0.134267877  -0.563758797 0.286714261  -0.56492456 0.285491881  -0.0842826642 -0.117593137
450277500.000000  -0.0245873058 -0.0670919414  0.0281818546 0.631079536  0.0267378673 0.632002785  -0.0258460184 -0.0557547751
480276000.000000  0.0328637936 -0.151256244  0.563588894 0.228621699  0.564224784 0.229940491  -0.000482693058 -0.149106772
510274500.000000  -0.0162145013 -0.119247085  0.445570001 -0.403959186  0.446056588 -0.403144544  -0.0392686184 -0.0732814804
540273000.000000  0.0797549448 -0.102074946  -0.18414494 -0.567633082  -0.182647783 -0.569533909  0.0840908444 -0.0762385131
570271500.000000  0.0661788213 -0.132427045  -0.582317966 -0.0749164999  -0.582515247 -0.0764059052  0.0204925491 -0.117158656
600270000.000000  0.109830419 -0.0592058635  -0.302132661 0.496084443  -0.303145509 0.496047779  0.0686519377 -0.00283206843
630268500.000000  0.14529157 -0.100462182  0.313436756 0.474383726  0.312949061 0.475357909  0.114667192 -0.0735538185
660267000.000000  0.106477987 -0.0332735273  0.560411352 -0.0852116757  0.56098891 -0.0845883679  0.0386614623 -0.00175426588
690265500.000000  0.170734114 0.00398737547  0.156514295 -0.531360268  0.157627091 -0.531711793  0.124115075 0.0250519889
720264000.000000  0.13023854 0.016293837  -0.408368273 -0.369316076  -0.408132093 -0.370045695  0.0287266904 -0.0133876625
750262500.000000  0.144873758 0.0885975605  -0.498259332 0.216588881  -0.499030749 0.216084609  0.0275492624 0.107164207
780261000.000000  0.12879997 0.0822367377  -0.01504938 0.538264678  -0.0165333407 0.538631023  0.0434562064 0.0342818234
810259500.000000  0.0928407965 0.15501836  0.470855152 0.230448751  0.471270554 0.231125169  -0.0766119305 0.0873159073
840258000.000000  0.0993098313 0.13796046  0.409017586 -0.322917626  0.409918369 -0.322439414  -0.0143849701 0.0989810733
870256500.000000  -0.00352043298 0.165807816  -0.123389395 -0.500848056  -0.122056706 -0.501821714  -0.123432721 0.0197668046
900255000.000000  0.0130260216 0.206342579  -0.493724172 -0.107586625  -0.494359032 -0.108599933  -0.139511124 0.102653461
930253500.000000  -0.0646245192 0.140595958  -0.30048509 0.401360074  -0.301111593 0.401183748  -0.119198757 -0.0105539385
960252000.000000  -0.129785688 0.208959384  0.222889031 0.428750969  0.222613648 0.430203751  -0.229266582 0.00331682052
990250500.000000  -0.102655122 0.144409413  0.485952559 -0.0157851366  0.486376882 -0.014747833  -0.128935819 -0.00250306559
1020249000.000000  -0.215805563 0.109072119  0.18322372 -0.436947102  0.184086402 -0.437310235  -0.176800457 -0.135800222
1050247500.000000  -0.17399314 0.112347098  -0.311338591 -0.354858772  -0.311533526 -0.355252301  -0.170355593 -0.0807072485
1080246000.000000  -0.219143509 -0.027371349  -0.442645975 0.137422861  -0.442800935 0.137523579  -0.089121285 -0.192680122
1110244500.000000  -0.263319811 -0.00447405934  -0.0723574246 0.449087809  -0.0722477382 0.449573669  -0.148105266 -0.188527696
1140243000.000000  -0.188708155 -0.105856257  0.380121661 0.248152246  0.379607749 0.248742715  -0.00279715055 -0.18133654
1170241500.000000  -0.261477579 -0.169911322  0.374796539 -0.224444556  0.375347839 -0.223661387  -0.020942505 -0.285862609
1200240000.000000  -0.172677043 -0.158609562  -0.0467396714 -0.440856671  -0.0438714049 -0.441077794  0.0171025341 -0.172851411
1230238500.000000  -0.142932038 -0.292377308  -0.404961265 -0.132683625  -0.404070622 -0.134436456  0.141314749 -0.246751414
1260237000.000000  -0.142746464 -0.259071525  -0.298475717 0.306200915  -0.300225038 0.304790497  0.0683786139 -0.20151197
1290235500.000000  -0.0135752642 -0.310383498  0.158747031 0.387805255  0.157874312 0.388888557  0.214223609 -0.107006453
1320234000.000000  -0.024769377 -0.341665515  0.409852063 0.0315338708  0.410350877 0.0321318888  0.19966459 -0.173954607
1350232500.000000  0.0837953299 -0.278695516  0.193826417 -0.364651877  0.193893984 -0.364815459  0.184494519 -0.00466385454
1380231000.000000  0.148023384 -0.334615459  -0.234485858 -0.319203225  -0.234521242 -0.319078262  0.28957209 -0.022650606
1410229500.000000  0.168337499 -0.252332774  -0.394202852 0.079097739  -0.393569146 0.0796543786  0.153742606 0.0211677817
1440228000.000000  0.282527434 -0.236072686  -0.0872843309 0.377064987  -0.0870537123 0.376895185  0.217585817 0.162106096
1470226500.000000  0.264455326 -0.195276538  0.303647303 0.246415801  0.303251103 0.246353367  0.166925971 0.0918836274
1500225000.000000  0.350989425 -0.0861497005  0.340245122 -0.174386726  0.340513754 -0.17391414  0.0627416592 0.236748741
1530223500.000000  0.36559133 -0.091025524  0.00201731852 -0.379056736  0.00320465745 -0.379253617  0.126727454 0.216169377
1560222000.000000  0.325299203 0.0300128702  -0.349625775 -0.159880747  -0.349186639 -0.161172551  -0.0375589477 0.168225417
1590220500.000000  0.35848982 0.0929661693  -0.288988832 0.238956747  -0.290006158 0.238199043  -0.0463375939 0.234477495
1620219000.000000  0.290363099 0.162422794  0.0968213561 0.362254269  0.0959713326 0.362691064  -0.114075656 0.0875354018
1650217500.000000  0.295798455 0.240701537  0.35459441 0.0671977393  0.354870065 0.0687670033  -0.253200254 0.129938923
1680216000.000000  0.207815414 0.233005535  0.21804928 -0.295927127  0.218853127 -0.294759742  -0.189522865 0.0668706197
1710214500.000000  0.121480055 0.337150897  -0.172721018 -0.309333121  -0.17219199 -0.310419698  -0.295355327 -0.0478030179
1740213000.000000  0.0948370202 0.316844576  -0.354158001 0.0146005342  -0.35456656 0.0138863925  -0.262777827 -0.0348842162
1770211500.000000  -0.0570429037 0.323325075  -0.127244019 0.322898206  -0.127958347 0.322991524  -0.233264538 -0.199400117
1800210000.000000  -0.0814874187 0.344505203  0.224696001 0.254632794  0.22451698 0.255282813  -0.272395558 -0.205323811
1830208500.000000  -0.189567538 0.241756405  0.323726655 -0.103178986  0.323402074 -0.102224443  -0.134262547 -0.276135887
1860207000.000000  -0.283705031 0.269613183  0.0515245526 -0.318881965  0.0521304609 -0.318486923  -0.160185223 -0.368886044
1890205500.000000  -0.273500273 0.169183882  -0.271955618 -0.187056977  -0.271571137 -0.187632871  -0.0556195836 -0.302747832
1920204000.000000  -0.392264628 0.0851699497  -0.267836883 0.161528328  -0.267761363 0.160340835  0.0543947804 -0.411639288
1950202500.000000  -0.361455434 0.0539776462  0.0228378144 0.314704193  0.0219716334 0.314487259  0.0542483724 -0.355343926
1980201000.000000  -0.3748222 -0.113023243  0.288807848 0.0987511018  0.289025249 0.0997958817  0.232287314 -0.331319255
2010199500.000000  -0.394789351 -0.13250155  0.219215479 -0.205471136  0.220263792 -0.204660431  0.23042873 -0.360539563
2040198000.000000  -0.276304247 -0.239932216  -0.102985969 -0.28604334  -0.101790377 -0.286793473  0.304123484 -0.215136389
2070196500.000000  -0.289936013 -0.34417514  -0.286530023 -0.0347855075  -0.286556329 -0.0360007446  0.379362792 -0.232546743
2100195000.000000  -0.194907627 -0.344543885  -0.157861641 0.251501791  -0.159018687 0.251172773  0.307914556 -0.101486438
2130193500.000000  -0.108698095 -0.442143359  0.157009049 0.235357723  0.156149309 0.235953236  0.41041296 0.0124495532
2160192000.000000  -0.0549962465 -0.42050306  0.285665424 -0.0378272594  0.285932579 -0.036839851  0.328223976 0.0280583857
2190190500.000000  0.0944146512 -0.43931379  0.073829448 -0.269333282  0.0748939896 -0.269303396  0.298107007 0.219169074
2220189000.000000  0.133405396 -0.438758042  -0.203178455 -0.188490321  -0.202725705 -0.188948045  0.304658759 0.21326926
2250187500.000000  0.251715822 -0.34952536  -0.253986195 0.113327925  -0.25462164 0.112893199  0.138838803 0.295075257
2280186000.000000  0.333669879 -0.346754048  -0.0133389923 0.265703763  -0.0137508584 0.265861964  0.142604321 0.362511377
2310184500.000000  0.363541204 -0.245256475  0.240623855 0.126258013  0.240673291 0.126878265  -0.000978951098 0.284792731
2340183000.000000  0.4550046 -0.181241402  0.206964958 -0.156301957  0.207288158 -0.155529848  -0.114231635 0.368351939
2370181500.000000  0.439019041 -0.111869822  -0.0498509497 -0.261546415  -0.0489469174 -0.261467977  -0.124985287 0.268287024
2400180000.000000  0.475267298 0.0203603632  -0.252413933 -0.0591120465  -0.252024983 -0.0597208302  -0.297256979 0.208902765
2430178500.000000  0.465718578 0.0686632886  -0.171179523 0.197102142  -0.172022178 0.196113333  -0.274240751 0.183203386
2460177000.000000  0.407971735 0.191342876  0.1085323 0.235925825  0.10736459 0.236299166  -0.331299031 -0.017028923
2490175500.000000  0.395191051 0.252453692  0.251003859 0.0151997222  0.250887429 0.0168199204  -0.383306592 -0.0391306147
2520174000.000000  0.282904105 0.307255397  0.118468745 -0.2233886  0.119610968 -0.222669222  -0.278284295 -0.180857925
2550172500.000000  0.229368046 0.387081819  -0.142073041 -0.193160709  -0.14097138 -0.193813946  -0.316631492 -0.298704333
2580171000.000000  0.123969333 0.37273129  -0.238366791 0.0494306233  -0.238769798 0.0481881027  -0.195235681 -0.318556208
2610169500.000000  0.0075957013 0.429249164  -0.0517770764 0.225667736  -0.0530135875 0.225493163  -0.11432154 -0.468128661
2640168000.000000  -0.0444501836 0.385456502  0.179214957 0.153485978  0.178533892 0.154444792  -0.0632909589 -0.450675223
2670166500.000000  -0.197099464 0.335553674  0.204139948 -0.0964083972  0.204977154 -0.0954469734  0.109839387 -0.492954122
2700165000.000000  -0.247161001 0.323025652  0.0164431928 -0.21711749  0.0174809474 -0.217172975  0.134746728 -0.503554993
2730163500.000000  -0.305760084 0.194725052  -0.192453505 -0.102586539  -0.192031859 -0.103611714  0.264202858 -0.387983723
2760162000.000000  -0.382395896 0.142004103  -0.166879003 0.120989845  -0.167487941 0.119822402  0.362125796 -0.390389188
2790160500.000000  -0.354325697 0.0336203617  0.0433940818 0.209247344  0.042179714 0.209338182  0.379829253 -0.25264487
2820159000.000000  -0.398416169 -0.0894299042  0.199669237 0.0445129073  0.199343515 0.045438204  0.503230541 -0.158622792
2850157500.000000  -0.353714 -0.141183432  0.133705558 -0.161583608  0.134551741 -0.160833733  0.476066694 -0.0822474861
2880156000.000000  -0.298277294 -0.2769409  -0.0898614018 -0.179808475  -0.089056103 -0.180194673  0.514610964 0.0876417755
2910154500.000000  -0.266627422 -0.317377974  -0.196373522 -0.00644316097  -0.196737518 -0.00711059967  0.503150839 0.127781067
2940153000.000000  -0.141018268 -0.374950085  -0.0808511422 0.176944562  -0.0810701002 0.176654658  0.402802758 0.276352767
2970151500.000000  -0.0936405328 -0.434854388  0.11446618 0.145664957  0.114138502 0.145603071  0.403703713 0.354582065
3000150000.000000  0.00187665789 -0.402331638  0.190030784 -0.0452220608  0.189860715 -0.0446226011  0.251124079 0.372640811
3030148500.000000  0.109816329 -0.427026149  0.0381027007 -0.18478469  0.0387874712 -0.184398962  0.15888266 0.484308454
3060147000.000000  0.163453877 -0.378600859  -0.150711173 -0.122705624  -0.150428214 -0.123452962  0.0676456833 0.434944593
3090145500.000000  0.276663623 -0.321818324  -0.168711059 0.0839878429  -0.169485626 0.0835772716  -0.120245862 0.453635949
3120144000.000000  0.315623404 -0.280107817  -0.0066443626 0.188414095  -0.00682681383 0.188949638  -0.163622455 0.415490418
3150142500.000000  0.362455768 -0.167350524  0.172126695 0.0831866374  0.172562725 0.0833453842  -0.312102479 0.264644827
3180141000.000000  0.400976144 -0.103250561  0.1486683 -0.112897702  0.148804605 -0.11304441  -0.397533249 0.22406713
3210139500.000000  0.386980607 0.0073619511  -0.039965009 -0.183638171  -0.0400841593 -0.183691633  -0.408993749 0.0423930645
3240138000.000000  0.404991044 0.095473325  -0.171086875 -0.0461507896  -0.171047991 -0.0460962672  -0.496417173 -0.0726702758
3270136500.000000  0.340619549 0.161743345  -0.120622397 0.136120687  -0.12060434 0.135819411  -0.409696059 -0.169643225
3300135000.000000  0.293154029 0.274010098  0.0724608679 0.158986696  0.0720634851 0.158870666  -0.371285565 -0.356942006
3330133500.000000  0.231793239 0.304764659  0.178631128 0.00978182464  0.178355365 0.0103120381  -0.301128457 -0.393115526
3360132000.000000  0.110092782 0.367391522  0.0822649604 -0.159879145  0.0828189564 -0.159292368  -0.13236708 -0.493450636
3390130500.000000  0.0433131541 0.398759059  -0.0982356295 -0.146299064  -0.0974608862 -0.146528517  -0.0609389637 -0.525752915
3420129000.000000  -0.0772192892 0.379355993  -0.173145716 0.0266013707  -0.172959189 0.025703378  0.131484066 -0.478734484
3450127500.000000  -0.162905531 0.377111945  -0.0518973314 0.156307541  -0.0525258883 0.155729344  0.264848068 -0.511995404
3480126000.000000  -0.249776951 0.285592912  0.122009076 0.11190258  0.121256096 0.112284209  0.359174501 -0.413812257
3510124500.000000  -0.365139781 0.237500557  0.141473365 -0.0605799115  0.141538706 -0.0597067837  0.509038024 -0.361485808
3540123000.000000  -0.379744176 0.153029092  0.0129174792 -0.157799729  0.0137031571 -0.15757997  0.535711703 -0.284414664
3570121500.000000  -0.437657762 0.00767270395  -0.137718504 -0.0745015854  -0.137338465 -0.0751695477  0.603132828 -0.137281944
3600120000.000000  -0.450792644 -0.0656620583  -0.12969701 0.0847874113  -0.130077058 0.0841358644  0.612626585 -0.0606969507
3630118500.000000  -0.402574426 -0.199303105  0.0261193751 0.155371205  0.0252937231 0.155693955  0.571283308 0.108015859
3660117000.000000  -0.3872626 -0.295476601  0.144994906 0.0433797745  0.145108682 0.0444403466  0.583053527 0.221683091
3690115500.000000  -0.279946459 -0.371022815  0.102402209 -0.117847075  0.103479158 -0.117933622  0.484210501 0.321690031
3720114000.000000  -0.201427269 -0.481044713  -0.0622855238 -0.136516623  -0.0621917383 -0.137445162  0.427708926 0.457887642
3750112500.000000  -0.101713125 -0.497956182  -0.154912196 -0.00608379595  -0.155657918 -0.00628066933  0.317676201 0.488238738
3780111000.000000  0.042617222 -0.541413706  -0.0659661951 0.137205127  -0.0658505036 0.137833026  0.155696911 0.575307116
3810109500.000000  0.126336739 -0.534954966  0.0906870861 0.122366522  0.0909094947 0.122217062  0.0660448961 0.581475292
3840108000.000000  0.264355806 -0.485086789  0.150759853 -0.0345649596  0.150477315 -0.0346688829  -0.120928263 0.536604239
3870106500.000000  0.357513576 -0.460272989  0.0367613772 -0.145663919  0.0366302136 -0.145510545  -0.237317557 0.528769149
3900105000.000000  0.436721094 -0.355972971  -0.120296057 -0.0984152969  -0.120046271 -0.0983033795  -0.338884568 0.388707824
3930103500.000000  0.532234448 -0.279439825  -0.136372226 0.0644827783  -0.13623539 0.0642228714  -0.471159303 0.295060042
3960102000.000000  0.554151132 -0.173431956  -0.0041251611 0.156496536  -0.00471968034 0.15651567  -0.469616177 0.152866817
3990100500.000000  0.598041166 -0.0360273734  0.140891435 0.0679674159  0.140539387 0.0685086607  -0.509584598 -0.0523937246
4020099000.000000  0.592891254 0.0716751998  0.123528525 -0.0954704241  0.123973522 -0.0947787939  -0.464345359 -0.17298755
4050097500.000000  0.571237684 0.214293804  -0.0352229951 -0.146920845  -0.0341380426 -0.147482813  -0.359538024 -0.371422232
4080096000.000000  0.531774286 0.305282156  -0.141717221 -0.0351049231  -0.142351312 -0.0363098691  -0.292481765 -0.479023597
4110094500.000000  0.431236014 0.420559298  -0.0889404488 0.113628777  -0.0900431671 0.114160919  -0.113575527 -0.546556324
4140093000.000000  0.367734692 0.512936735  0.0565412968 0.124401073  0.0568375075 0.125162991  0.0126898598 -0.622293597
4170091500.000000  0.2365861 0.546092103  0.141536933 0.00607259082  0.141811095 0.00588609706  0.149419617 -0.569337328
4200090000.000000  0.0969805228 0.614015015  0.0627373129 -0.122492718  0.062533256 -0.122385374  0.322207305 -0.533673543
4230088500.000000  -0.0197865317 0.60601275  -0.0815302065 -0.111431503  -0.0813144525 -0.11120445  0.410521414 -0.438351751
4260087000.000000  -0.176363503 0.586913036  -0.130858466 0.0295452519  -0.130532949 0.0294908716  0.555312835 -0.295818062
4290085500.000000  -0.276247479 0.534024119  -0.0324040311 0.127406978  -0.0322767058 0.126992494  0.633066925 -0.200827718
4320084000.000000  -0.413629345 0.417847338  0.102784606 0.0805744969  0.102424713 0.0803182891  0.669848103 -0.0294858249
4350082500.000000  -0.513114339 0.338871459  0.114043351 -0.0512788259  0.113654684 -0.050993257  0.706455759 0.0961516374
4380081000.000000  -0.548245381 0.179239849  0.0050114899 -0.128858819  0.00509284695 -0.128636507  0.646743484 0.229517226
4410079500.000000  -0.611199546 0.0225201952  -0.109151955 -0.0573723438  -0.108886338 -0.0574610659  0.604714335 0.380437008
4440078000.000000  -0.581493607 -0.112016028  -0.100310979 0.0715062107  -0.100495803 0.071501661  0.509554026 0.46891478
4470076500.000000  -0.543210953 -0.287421876  0.0246725618 0.115533758  0.0246307673 0.115896058  0.383694472 0.592199166
4500075000.000000  -0.476724915 -0.388579215  0.1127341 0.0301238253  0.113244341 0.0301453786  0.279222193 0.651656696
4530073500.000000  -0.340172127 -0.505984701  0.0737518999 -0.0929631507  0.0737860766 -0.0933798819  0.107913022 0.685503647
4560072000.000000  -0.240372175 -0.593095108  -0.0486281872 -0.106279588  -0.0487880427 -0.106317011  -0.0272973487 0.70998939
4590070500.000000  -0.0859726062 -0.616584331  -0.121136394 -0.00254796584  -0.120997464 -0.00263973293  -0.188057187 0.642633355
4620069000.000000  0.0637596376 -0.653132703  -0.0529484647 0.104385596  -0.0530212764 0.104118726  -0.35785043 0.590154288
4650067500.000000  0.1975675 -0.613413644  0.0704141678 0.0949955504  0.0700698032 0.0949386655  -0.46026596 0.467707982
4680066000.000000  0.354494187 -0.569375749  0.111868397 -0.023432867  0.111674835 -0.0231208078  -0.588703014 0.315239516
4710064500.000000  0.448307592 -0.496846869  0.0316110539 -0.109714403  0.0319760337 -0.109398219  -0.631804976 0.179952535
4740063000.000000  0.554087007 -0.37555749  -0.0866567411 -0.0742221475  -0.0863940993 -0.0744687733  -0.638748744 -0.0259195768
4770061500.000000  0.626041589 -0.278523871  -0.10293155 0.0421998465  -0.103060363 0.0419195433  -0.628906399 -0.180457532
4800060000.000000  0.658851464 -0.130805372  -0.00519462854 0.113453258  -0.00542194667 0.113453252  -0.517218642 -0.334727231
4830058500.000000  0.701632185 0.00431654396  0.0972206039 0.0521550215  0.0970532649 0.0523111134  -0.412564063 -0.477222379
4860057000.000000  0.683174671 0.13218192  0.0903336884 -0.0648788243  0.0904578957 -0.064642294  -0.238074679 -0.536318631
4890055500.000000  0.65795095 0.268826064  -0.0193204854 -0.104486675  -0.019124454 -0.104388919  -0.0391102796 -0.622510268
4920054000.000000  0.587705846 0.369913081  -0.10059259 -0.0294128931  -0.10047231 -0.0294499778  0.111477154 -0.624667437
4950052500.000000  0.491390515 0.493454791  -0.0654863776 0.0779174838  -0.0655729943 0.0776881623  0.305692741 -0.578086112
4980051000.000000  0.40290265 0.568693659  0.0376078938 0.0927786328  0.037365069 0.0927926375  0.437835564 -0.521561145
5010049500.000000  0.256058749 0.622636604  0.102352958 0.00672930957  0.102239832 0.00708997537  0.545560868 -0.379626447
5040048000.000000  0.125251792 0.674392528  0.0504249412 -0.0853707349  0.0506345257 -0.0851630651  0.644053885 -0.247614751
5070046500.000000  -0.0245554202 0.660059427  -0.0550047086 -0.0814628049  -0.0546800329 -0.0818074995  0.665977769 -0.0870471946
5100045000.000000  -0.184227857 0.644602833  -0.0928351966 0.016781836  -0.0929611721 0.0163317401  0.690688537 0.0860002889
5130043500.000000  -0.303871694 0.572337755  -0.024743987 0.0927789669  -0.0252890852 0.0927415962  0.654390145 0.225407375
5160042000.000000  -0.442004125 0.470385479  0.0736118658 0.0614946388  0.0735017214 0.0618807182  0.586517595 0.391296706
5190040500.000000  -0.526438289 0.366661959  0.0886338828 -0.0346211569  0.0889187258 -0.0342258139  0.503804979 0.505926786
5220039000.000000  -0.588396747 0.211808381  0.00850723145 -0.0917473538  0.00878324763 -0.0919297167  0.358745598 0.608396205
5250037500.000000  -0.626591793 0.0733665771  -0.0736731659 -0.0457451587  -0.0736083785 -0.046038534  0.225871841 0.689730983
5280036000.000000  -0.60058349 -0.0873222679  -0.0707506324 0.0489970332  -0.0710443089 0.0487780771  0.0637390303 0.711253373
5310034500.000000  -0.575395463 -0.244812037  0.0144822572 0.0840269745  0.0141646122 0.0840902847  -0.0984475781 0.727467941
5340033000.000000  -0.491260681 -0.354206413  0.0854381807 0.0287572676  0.0853638711 0.0291226272  -0.233283585 0.680058987
5370031500.000000  -0.371400891 -0.478427446  0.0653811598 -0.063007134  0.0656587426 -0.0626518823  -0.386105189 0.597253194
5400030000.000000  -0.256434007 -0.554434704  -0.0232727875 -0.0851774892  -0.0227832146 -0.0852322961  -0.493031815 0.493273373
5430028500.000000  -0.103403979 -0.602816957  -0.0827336259 -0.0133004269  -0.0826965652 -0.0138116892  -0.584882615 0.332007597
5460027000.000000  0.029794796 -0.632851709  -0.0445948215 0.0673329485  -0.0449747792 0.06720126  -0.644903928 0.180342973
5490025500.000000  0.171319622 -0.609918274  0.0441383285 0.0688298547  0.0439977475 0.0691061227  -0.641560823 -0.00532019675
5520024000.000000  0.301388533 -0.579747282  0.0801535759 -0.00684809418  0.0803925889 -0.00670532226  -0.635411739 -0.187355935
5550022500.000000  0.401933586 -0.497572357  0.0330279844 -0.0726808748  0.0331973009 -0.0728561747  -0.566824515 -0.330625177
5580021000.000000  0.511806148 -0.402238429  -0.0455287375 -0.0593055354  -0.0455716335 -0.0594449097  -0.458989787 -0.472749968
5610019500.000000  0.575050306 -0.309336583  -0.071707371 0.0128029355  -0.0717470231 0.0129372957  -0.328759213 -0.556405393
5640018000.000000  0.616709841 -0.183130773  -0.0179715751 0.071826847  -0.0179843478 0.0718704363  -0.143976473 -0.606019478
5670016500.000000  0.641501788 -0.0696621091  0.0570596428 0.0490271187  0.0570636186 0.0489345917  0.0283597353 -0.625361991
5700015000.000000  0.627784794 0.0541483585  0.0701681943 -0.0276280649  0.0703100068 -0.0277787506  0.208449485 -0.581382835
5730013500.000000  0.607423126 0.170543064  0.00921048445 -0.0708036886  0.00916656316 -0.07088952  0.370652659 -0.522667321
5760012000.000000  0.547458684 0.264590317  -0.0567160497 -0.0388215326  -0.0567910717 -0.038796913  0.48817306 -0.409882293
5790010500.000000  0.471003081 0.363820187  -0.0569681971 0.0352664855  -0.0568879428 0.0354216411  0.592605771 -0.269457609
5820009000.000000  0.386876972 0.425721857  0.00722776898 0.0701568828  0.00738726031 0.0701332515  0.637941383 -0.118806549
5850007500.000000  0.273986331 0.470221637  0.0689010027 0.0267673058  0.0689196922 0.0266612454  0.650426546 0.0640470578
5880006000.000000  0.169728803 0.494074191  0.0561246682 -0.0470937256  0.0560797223 -0.0471537625  0.634655593 0.222672287
5910004500.000000  0.0459985557 0.483345408  -0.0160288417 -0.0677120771  -0.0159813359 -0.0676652837  0.568022763 0.369411287
5940003000.000000  -0.0696970146 0.473980365  -0.0648517221 -0.0132499728  -0.0648022477 -0.013286782  0.485551902 0.493457081
5970001500.000000  -0.166905277 0.42085452  -0.0395010658 0.0561789321  -0.0395188833 0.056006145  0.364523984 0.577835211
6000000000.000000  -0.274474899 0.356680359  0.0342338176 0.0626061944  0.0339985471 0.0627910968  0.225048425 0.650183411
