! 2-port S-parameters written by miniscope-char acquisition
! instrument: Pico Technology Ltd,PicoVNA-106,10080,5.3.4
! transport: scpi
! endpoint: 127.0.0.1:5025
! demo: false
! calibration: software
# HZ S RI R 50
300000.000000  0.0295640488 -0.0109706889  0.966951917 -0.0239145821  1.00205769 0.00635775947  0.0238862698 -0.0164370544
30298500.000000  -0.0191037964 -0.0554428272  -0.113760167 -0.892360614  -0.086715716 -0.875768434  -0.01690165 -0.0488919568
60297000.000000  0.0246309413 -0.0156798877  -0.822884753 0.119380704  -0.810084527 0.0968315494  0.00152475185 -0.00628036263
90295500.000000  -0.0635697667 -0.0329480935  0.114009985 0.777489632  0.0974437578 0.764849638  -0.066537132 -0.00128223626
120294000.000000  0.0187385673 -0.0107807996  0.748867754 -0.100591382  0.736136199 -0.083004523  -0.0160202432 0.0022134845
150292500.000000  -0.0581003542 -0.0220339506  -0.0887479407 -0.719951919  -0.0754944108 -0.707054972  -0.0743445982 0.00177064309
180291000.000000  0.0226003209 -0.0301675872  -0.700171398 0.0770135987  -0.687473484 0.0635213686  -0.0421498246 -0.013545569
210289500.000000  -0.0578951344 -0.0235244671  0.0625635906 0.677286903  0.0500788986 0.6644201  -0.0818857058 -0.00270443731
240288000.000000  0.0169015221 -0.0501585423  0.660502664 -0.0508478251  0.648548453 -0.0384528862  -0.0542921741 -0.0429423937
270286500.000000  -0.0445009514 -0.0262136505  -0.0346459818 -0.646598031  -0.0231133291 -0.633690015  -0.0712326554 -0.0215313188
300285000.000000  0.000909863077 -0.0792758838  -0.624326603 0.0236906691  -0.612086841 0.0130844564  -0.0449593406 -0.0930773314
330283500.000000  -0.0324396435 -0.015272204  0.00884784529 0.612899288  -0.00190091757 0.600907577  -0.0632471064 -0.0702516065
360282000.000000  0.0129842336 -0.103537845  0.594515722 0.00337580034  0.581843687 0.0128751042  -0.0452371861 -0.132297962
390280500.000000  -0.014006886 -0.0239978014  0.0192398856 -0.584133995  0.0287134091 -0.572437448  -0.0347053521 -0.0871733695
420279000.000000  0.0157351285 -0.0977184305  -0.568300568 -0.0310860144  -0.556463597 -0.0404920822  -0.00648637204 -0.145725908
450277500.000000  0.0297609165 -0.0157493554  -0.0464593376 0.562245634  -0.0552984752 0.550983153  0.0204810751 -0.100226257
480276000.000000  0.0388582577 -0.087680775  0.543332704 0.0610863392  0.532371404 0.0694672034  0.026335966 -0.133686595
510274500.000000  0.0726887891 -0.0134817214  0.0710634323 -0.532049158  0.0785426032 -0.52080137  0.0730931363 -0.0814673407
540273000.000000  0.0602355933 -0.0716046725  -0.52256665 -0.0885255105  -0.51223821 -0.0967233858  0.0506116224 -0.104797895
570271500.000000  0.0835519467 -0.0136348664  -0.0960554296 0.509472124  -0.103885183 0.498712835  0.0861580959 -0.0289603836
600270000.000000  0.0583827615 -0.0223922835  0.496305231 0.109475446  0.485863412 0.116091651  0.0560881523 -0.02517406
630268500.000000  0.0982981119 0.00200714828  0.120271146 -0.482690047  0.126605897 -0.472256462  0.0884257375 0.0352658659
660267000.000000  0.0539768482 0.0283183177  -0.470307321 -0.134377621  -0.459546466 -0.13998482  0.0378281484 0.0592375917
690265500.000000  0.0984191855 0.0201366395  -0.147122087 0.456761204  -0.152748818 0.445907784  0.0738001225 0.0973075137
720264000.000000  0.0298361666 0.0629628543  0.44627843 0.156729587  0.435352848 0.161685849  0.0167562426 0.105525074
750262500.000000  0.0656917035 0.0612436514  0.168728579 -0.435893225  0.173521079 -0.425205282  0.0229303028 0.101348115
780261000.000000  0.0334208707 0.113743148  -0.420836506 -0.177110378  -0.409596286 -0.181917454  -0.0711456292 0.121275202
810259500.000000  0.0442243932 0.0530913701  -0.189676629 0.404433514  -0.193795353 0.393910891  -0.0565236419 0.121956008
840258000.000000  -0.0090091561 0.113809192  0.391711536 0.19818151  0.381494069 0.202263314  -0.119035172 0.119608976
870256500.000000  -0.026149627 0.052476163  0.208098321 -0.38319661  0.211984085 -0.372797357  -0.121148257 0.0706247925
900255000.000000  -0.0711792444 0.115620001  -0.367107555 -0.214469956  -0.356928977 -0.217798596  -0.153849647 0.064123419
930253500.000000  -0.104904368 0.0872480816  -0.219454372 0.35398443  -0.221869372 0.344007489  -0.160251316 -0.0541769275
960252000.000000  -0.0646138051 0.124072129  0.334077638 0.23178007  0.324315482 0.234125397  -0.222360616 -0.0519487476
990250500.000000  -0.123248488 0.0389257203  0.23902122 -0.322404821  0.240609688 -0.313063827  -0.195186844 -0.133492576
1020249000.000000  -0.0733418454 0.0597853584  -0.306331962 -0.251178262  -0.296944235 -0.25178795  -0.198081203 -0.143821681
1050247500.000000  -0.135024373 -0.0286351262  -0.254713486 0.293489838  -0.25505969 0.284502382  -0.153566101 -0.207318651
1080246000.000000  -0.0796494509 -0.0348152013  0.281170008 0.26068762  0.272925903 0.259615257  -0.0921625512 -0.218627117
1110244500.000000  -0.138346036 -0.0770731107  0.262055301 -0.265388185  0.260695028 -0.257113128  -0.0520937825 -0.280827734
1140243000.000000  -0.0369120454 -0.111726221  -0.255607805 -0.264658679  -0.24672937 -0.263034678  0.0237929874 -0.284901113
1170241500.000000  -0.100629456 -0.150323699  -0.27047055 0.237271215  -0.268880404 0.228488223  0.0364049208 -0.303407468
1200240000.000000  -0.0120677611 -0.182902822  0.226992726 0.272339734  0.218606065 0.270698325  0.131437275 -0.259149478
1230238500.000000  -0.0615864459 -0.174903717  0.278531984 -0.211781739  0.277040434 -0.20329575  0.142943617 -0.247224667
1260237000.000000  0.0293090521 -0.208965255  -0.20212527 -0.276087373  -0.194451307 -0.274654653  0.234639319 -0.191936956
1290235500.000000  -0.0077958226 -0.163571933  -0.284665452 0.1872297  -0.282428711 0.180562222  0.218883949 -0.163969309
1320234000.000000  0.0886924991 -0.179347759  0.178162701 0.282862225  0.172235203 0.279961662  0.269787375 -0.0915002192
1350232500.000000  0.0993288324 -0.123699194  0.286360789 -0.170732685  0.283218695 -0.165443426  0.243776898 -0.0147803621
1380231000.000000  0.167021768 -0.164025494  -0.156742971 -0.284401933  -0.152022197 -0.281316347  0.281510159 0.0356853073
1410229500.000000  0.171870142 -0.0945534475  -0.288511115 0.1477663  -0.284947097 0.143465977  0.209744693 0.119151548
1440228000.000000  0.192637974 -0.110280383  0.130902388 0.288568134  0.12672969 0.285291919  0.222064019 0.160864522
1470226500.000000  0.217380845 -0.00497763943  0.288068333 -0.122233796  0.284741675 -0.118269628  0.136839491 0.222908319
1500225000.000000  0.231195088 -0.0132576637  -0.106949189 -0.291660697  -0.102820151 -0.288379163  0.098521991 0.213905686
1530223500.000000  0.247747063 0.0598833861  -0.28964186 0.0962171274  -0.286463112 0.0919140152  -0.019748688 0.264323328
1560222000.000000  0.210979835 0.0788433266  0.08382746 0.290825965  0.0799581024 0.287394655  -0.0824612144 0.219364896
1590220500.000000  0.237928702 0.122987621  0.28436458 -0.0679893961  0.280851052 -0.064614647  -0.196184858 0.255186633
1620219000.000000  0.136223824 0.120457104  -0.0543740322 -0.290411523  -0.0514971344 -0.286852747  -0.213810311 0.187784231
1650217500.000000  0.124036202 0.177611888  -0.288441408 0.042166755  -0.28477683 0.0392941416  -0.265891506 0.135516964
1680216000.000000  0.0474061077 0.198002102  0.0326252278 0.285378878  0.0300618018 0.281719281  -0.293297972 0.00922965664
1710214500.000000  0.0473143738 0.182501298  0.28227494 -0.0199199526  0.278636164 -0.0177293162  -0.306811692 -0.0488397749
1740213000.000000  -0.0417306874 0.176499835  -0.0148505246 -0.277395089  -0.0124660738 -0.273652744  -0.286444389 -0.181391422
1770211500.000000  -0.0844941483 0.106369291  -0.268827761 0.00658341812  -0.265050556 0.00432756008  -0.271223811 -0.271881172
1800210000.000000  -0.179267782 0.158996797  -0.00922776941 0.25500405  -0.0108669054 0.251597593  -0.275803884 -0.352491273
1830208500.000000  -0.144720574 0.0771457046  0.256079201 0.0235726376  0.252373291 0.0248757023  -0.19991401 -0.365152398
1860207000.000000  -0.204547393 0.069327378  0.0343235596 -0.249573627  0.0351448313 -0.246000615  -0.139024806 -0.417819451
1890205500.000000  -0.190623089 -0.0448887429  -0.24592325 -0.0413760824  -0.242603311 -0.0420244219  -0.0397201644 -0.423720832
1920204000.000000  -0.229626067 -0.0488217662  -0.0514476508 0.239138957  -0.0519441382 0.236057343  0.0223152719 -0.423514908
1950202500.000000  -0.209264501 -0.161165008  0.233091934 0.0543634091  0.229669351 0.0548137714  0.138829577 -0.406170854
1980201000.000000  -0.203417348 -0.168556378  0.0637301562 -0.228394209  0.0641844756 -0.225125115  0.190492517 -0.356598139
2010199500.000000  -0.180843164 -0.266159395  -0.221111932 -0.066206364  -0.217863538 -0.0662680436  0.302138246 -0.307287836
2040198000.000000  -0.133385398 -0.270235559  -0.0725946253 0.218610062  -0.0725589688 0.215332476  0.339930831 -0.203910063
2070196500.000000  -0.115133157 -0.328860023  0.208493578 0.0782932919  0.205098772 0.0777662305  0.442514374 -0.133919152
2100195000.000000  -0.00777406411 -0.304337863  0.0849684868 -0.205779876  0.0843128237 -0.202290695  0.44964528 -0.0320451035
2130193500.000000  0.0263145374 -0.355246279  -0.19454524 -0.0937573816  -0.191049325 -0.0927651503  0.47416925 0.0319675972
2160192000.000000  0.136795871 -0.312386052  -0.0990910106 0.191664951  -0.0980068933 0.188388511  0.418793407 0.137319471
2190190500.000000  0.174063179 -0.327757246  0.184483209 0.10799317  0.18124883 0.106905648  0.359956763 0.18407377
2220189000.000000  0.254965782 -0.269196498  0.110222172 -0.18277853  0.109230835 -0.179282289  0.240342342 0.293299493
2250187500.000000  0.288131153 -0.213655313  -0.179312161 -0.114359163  -0.175669798 -0.113531819  0.134227904 0.33157821
2280186000.000000  0.361842097 -0.170746814  -0.116410078 0.169704029  -0.115506991 0.165908703  0.0235524174 0.410907229
2310184500.000000  0.350359488 -0.0886468577  0.165259662 0.124482636  0.161562965 0.123572122  -0.0802702035 0.370445981
2340183000.000000  0.39820781 -0.0327529566  0.128958168 -0.154048479  0.127567155 -0.15041439  -0.184683761 0.365823528
2370181500.000000  0.381410616 0.0518703547  -0.145664394 -0.134399654  -0.142102055 -0.132590166  -0.28838644 0.267610174
2400180000.000000  0.38285818 0.0751912211  -0.14297403 0.130522262  -0.141082574 0.127429785  -0.353959672 0.225559154
2430178500.000000  0.315044595 0.150850109  0.125140053 0.148295353  0.121680658 0.146178435  -0.399081662 0.0821609913
2460177000.000000  0.25093544 0.181200461  0.152161771 -0.118566538  0.15006914 -0.114724696  -0.426489559 -0.0144489089
2490175500.000000  0.185841504 0.281436164  -0.111005715 -0.151231012  -0.107133924 -0.149143347  -0.437090228 -0.140713361
2520174000.000000  0.125893239 0.290659109  -0.155251301 0.103924855  -0.152860647 0.0995158165  -0.375227845 -0.237853339
2550172500.000000  0.0759855689 0.340134166  0.0933913518 0.154404958  0.0890692541 0.151853461  -0.34569069 -0.364240579
2580171000.000000  -0.0187086814 0.296696113  0.158940534 -0.0859215743  0.156475029 -0.081893627  -0.256387783 -0.431000787
2610169500.000000  -0.0801674862 0.312793  -0.0736079879 -0.160110074  -0.0698596811 -0.157573045  -0.180822853 -0.50464302
2640168000.000000  -0.180768231 0.238220072  -0.161096703 0.0650826561  -0.158685756 0.0617241951  -0.055332618 -0.536206417
2670166500.000000  -0.228873048 0.212506238  0.0559848845 0.159870911  0.0527122824 0.157416234  0.0455940537 -0.546473773
2700165000.000000  -0.314656763 0.11865036  0.156691213 -0.0525519056  0.154079518 -0.0493880778  0.181018237 -0.525569358
2730163500.000000  -0.32402272 0.0600641474  -0.0465844233 -0.157468645  -0.0434737312 -0.154733903  0.276954063 -0.459775004
2760162000.000000  -0.36390004 -0.0339697156  -0.15357915 0.0417188291  -0.150747466 0.0385268378  0.404757852 -0.388404117
2790160500.000000  -0.31801542 -0.126727913  0.0368551762 0.154045299  0.033972764 0.151204115  0.481005636 -0.277695182
2820159000.000000  -0.323995532 -0.205171899  0.151954349 -0.0285012881  0.149084919 -0.0259600711  0.564147522 -0.186261503
2850157500.000000  -0.225317502 -0.284979092  -0.0213679443 -0.153705524  -0.0185985636 -0.150805979  0.582733743 -0.0625544048
2880156000.000000  -0.193063582 -0.345875204  -0.151021244 0.0098760169  -0.148233237 0.00747385096  0.582314041 0.0387508388
2910154500.000000  -0.0814547038 -0.391753132  0.00474777418 0.148568195  0.00237535604 0.145875472  0.533638479 0.174558344
2940153000.000000  -0.0149209003 -0.404372134  0.14702982 -0.000101063814  0.144158389 0.00247836503  0.466294354 0.270713592
2970151500.000000  0.0911616097 -0.429331318  0.00319923325 -0.143648259  0.00558902615 -0.140725174  0.384924913 0.379701135
3000150000.000000  0.153064374 -0.395198938  -0.145781642 -0.00893440399  -0.142738512 -0.0118131134  0.269727012 0.413532724
3030148500.000000  0.249241674 -0.37684659  -0.0107382341 0.144952949  -0.0139588361 0.141965375  0.142566137 0.463807012
3060147000.000000  0.317572198 -0.31483187  0.145972781 0.0135317577  0.143289991 0.0167006284  -0.0150597379 0.461695538
3090145500.000000  0.369911414 -0.274408104  0.0216844851 -0.142835556  0.0245944182 -0.140182002  -0.13348669 0.472775824
3120144000.000000  0.415724793 -0.165779925  -0.139995707 -0.0275251589  -0.137402582 -0.0299773145  -0.259852969 0.400331849
3150142500.000000  0.452952459 -0.0920471526  -0.0325943944 0.132505911  -0.0346711666 0.130131293  -0.35466896 0.31333667
3180141000.000000  0.493881623 0.00262966957  0.124509252 0.035581696  0.122090886 0.0376218162  -0.462163238 0.195065401
3210139500.000000  0.476409893 0.062861939  0.0428718604 -0.123643193  0.0446243313 -0.121096952  -0.486812787 0.0738995301
3240138000.000000  0.45511604 0.15684328  -0.121571162 -0.0453406326  -0.118930773 -0.0470375299  -0.522496972 -0.0902483751
3270136500.000000  0.376358842 0.24383647  -0.0491316402 0.120052161  -0.0506321421 0.117257981  -0.488098987 -0.229064292
3300135000.000000  0.336748595 0.340451445  0.114340261 0.0541908295  0.111581722 0.0552382129  -0.43804457 -0.355531007
3330133500.000000  0.243022589 0.402461889  0.0605899024 -0.111395196  0.0613331915 -0.108676367  -0.307852548 -0.4656079
3360132000.000000  0.176776825 0.436853455  -0.104533264 -0.0691995177  -0.101885608 -0.0694481953  -0.200309114 -0.544630444
3390130500.000000  0.0475177964 0.447026922  -0.0726289723 0.100575172  -0.0725641056 0.0980846059  -0.0374820159 -0.58152734
3420129000.000000  -0.0498931981 0.429732361  0.0960211727 0.074860852  0.0936608425 0.0746152541  0.100070353 -0.577256947
3450127500.000000  -0.173934219 0.407883971  0.075114758 -0.0923225246  0.0747252764 -0.09004258  0.25639058 -0.544151947
3480126000.000000  -0.253449623 0.338245657  -0.0896616638 -0.0765824048  -0.0873802011 -0.0760798148  0.383236616 -0.458691119
3510124500.000000  -0.33058983 0.267825136  -0.0748355413 0.0843329517  -0.0744284916 0.082184948  0.518428498 -0.373549158
3540123000.000000  -0.386906898 0.133294223  0.0807313951 0.0742357368  0.0786146682 0.0739305857  0.608096813 -0.262109711
3570121500.000000  -0.430760563 0.0523315929  0.0779139338 -0.0741803383  0.0774830827 -0.0723215788  0.6565038 -0.155096352
3600120000.000000  -0.418386636 -0.0763135915  -0.0704895344 -0.0803920576  -0.0689997023 -0.0797877211  0.671106181 -0.00237497071
3630118500.000000  -0.378045895 -0.167337103  -0.0807135237 0.0642694088  -0.0801101706 0.0631071215  0.673749925 0.12600467
3660117000.000000  -0.324873448 -0.303971648  0.0587746626 0.0796331733  0.0577078422 0.0790315723  0.650178133 0.255324955
3690115500.000000  -0.247927296 -0.372534227  0.0834879626 -0.0541427623  0.0826896265 -0.0532461682  0.586443709 0.356763675
3720114000.000000  -0.161044681 -0.477477907  -0.0483920844 -0.0849276247  -0.0474901693 -0.0839576381  0.503516007 0.461315627
3750112500.000000  -0.0654346643 -0.508922365  -0.0878066283 0.0442066334  -0.0866940531 0.0430856759  0.368845122 0.532471544
3780111000.000000  0.0330128141 -0.53728722  0.0408520926 0.0881986183  0.0395565044 0.0871507333  0.232467097 0.596206156
3810109500.000000  0.151151615 -0.507048986  0.0903712002 -0.0397961568  0.0892953708 -0.0380541711  0.0583730196 0.608511463
3840108000.000000  0.256063977 -0.474457308  -0.0365424756 -0.089923177  -0.0346659951 -0.0887769121  -0.102762806 0.602054462
3870106500.000000  0.378946701 -0.414416835  -0.086474888 0.0343138121  -0.0853765257 0.0326295829  -0.280601892 0.551238671
3900105000.000000  0.460081799 -0.344162031  0.0313719791 0.0858504269  0.0297937306 0.0847461505  -0.417822343 0.455252542
3930103500.000000  0.546029045 -0.259398554  0.0845932891 -0.0265732544  0.0835606982 -0.0251300569  -0.55662752 0.326742167
3960102000.000000  0.584323375 -0.150053479  -0.0201918504 -0.0847825878  -0.018916089 -0.0837919325  -0.62289352 0.162611735
3990100500.000000  0.63280757 -0.0442223843  -0.0823383999 0.0139017815  -0.0813712225 0.0125617325  -0.658337408 -0.0129747897
4020099000.000000  0.622244229 0.067043281  0.00959527795 0.0838201339  0.0082135167 0.0828703498  -0.602609389 -0.208184039
4050097500.000000  0.599745975 0.175240643  0.0827600015 -0.00455702784  0.0819829826 -0.00297443009  -0.528478586 -0.388682103
4080096000.000000  0.546283082 0.295644223  -0.000707658159 -0.0786943651  0.000729879775 -0.0781628441  -0.396331472 -0.542202456
4110094500.000000  0.483738323 0.378313713  -0.0759423523 -0.00338968289  -0.0755107256 -0.00448065886  -0.252766756 -0.633764808
4140093000.000000  0.389030834 0.470348854  -0.00496249625 0.0761582857  -0.00577563695 0.0755668568  -0.0646748429 -0.686982508
4170091500.000000  0.288213768 0.521481903  0.0768293372 0.00961021523  0.0758332723 0.0102828563  0.118202993 -0.679357962
4200090000.000000  0.173327418 0.564445281  0.0133377552 -0.0738881424  0.0140519152 -0.0725755284  0.307774988 -0.648023099
4230088500.000000  0.0378684899 0.55064988  -0.0729168749 -0.0170130039  -0.071493991 -0.0178876079  0.455817073 -0.568353972
4260087000.000000  -0.094910939 0.541185975  -0.0213519726 0.0709186796  -0.0221617363 0.0695195576  0.583466416 -0.470071328
4290085500.000000  -0.234236338 0.480179121  0.0681226765 0.0264572964  0.0667627406 0.0271162577  0.669655697 -0.333718704
4320084000.000000  -0.352125994 0.431558698  0.0292143217 -0.0629963138  0.0295130653 -0.0617564535  0.720495413 -0.182381556
4350082500.000000  -0.446940944 0.340635339  -0.0599406437 -0.028869452  -0.0588951639 -0.0289518548  0.744497429 -0.00212417312
4380081000.000000  -0.494800736 0.228097771  -0.0312227855 0.0584968109  -0.0311028444 0.0576581231  0.735862895 0.159134753
4410079500.000000  -0.536186534 0.0791482928  0.0568972348 0.0321546905  0.056179359 0.0319480691  0.696422756 0.321235546
4440078000.000000  -0.522310186 -0.0703500083  0.0328028225 -0.0565138747  0.0326578964 -0.0559244749  0.617510934 0.455381393
4470076500.000000  -0.505110302 -0.227906067  -0.0564485611 -0.0339013399  -0.0559141114 -0.0338964529  0.510841888 0.576799559
4500075000.000000  -0.436797334 -0.360282343  -0.0376712455 0.0537870276  -0.0377650873 0.0533216466  0.366991757 0.670056091
4530073500.000000  -0.358133909 -0.466622466  0.0470323049 0.0407238591  0.0465035998 0.0408210132  0.213460935 0.738556895
4560072000.000000  -0.232838777 -0.544838121  0.0402216701 -0.0423602486  0.0403311002 -0.0416295758  0.0309961704 0.768186584
4590070500.000000  -0.104070523 -0.592157832  -0.0394092304 -0.0390468446  -0.0385362064 -0.0391555923  -0.149723992 0.761727866
4620069000.000000  0.0439649369 -0.619272081  -0.0372274497 0.0354965761  -0.0373127175 0.0346337559  -0.329724137 0.712381902
4650067500.000000  0.176489052 -0.595665074  0.032898026 0.0364708102  0.0320452927 0.0365230072  -0.474109646 0.613488976
4680066000.000000  0.316325183 -0.559076309  0.0361951724 -0.0339148991  0.0362722074 -0.0330438837  -0.595484806 0.47745069
4710064500.000000  0.41941541 -0.483291532  -0.035284856 -0.0415983345  -0.0342002843 -0.0416328275  -0.668436508 0.302649203
4740063000.000000  0.512282151 -0.399700186  -0.0476656174 0.0322462171  -0.0475854943 0.0311469642  -0.713048337 0.115606549
4770061500.000000  0.570144963 -0.286574917  0.0288959548 0.0521274523  0.0277863346 0.0520198084  -0.694168521 -0.0880726025
4800060000.000000  0.616311842 -0.167141406  0.0533945556 -0.0245472486  0.0531927112 -0.023450698  -0.642256106 -0.283279231
4830058500.000000  0.642074548 -0.0341410678  -0.0171834061 -0.0521313498  -0.0162331999 -0.0517669764  -0.533859291 -0.456633119
4860057000.000000  0.639737958 0.0883807335  -0.0459812084 0.0103134457  -0.0455157347 0.00951196534  -0.384205533 -0.589829906
4890055500.000000  0.616844175 0.213551891  0.0102045803 0.0374561814  0.00954830798 0.0371010354  -0.20342506 -0.686687352
4920054000.000000  0.561549779 0.327434169  0.036330889 -0.0153675111  0.0360672807 -0.0146738103  -0.00219583402 -0.725714985
4950052500.000000  0.500440595 0.431824213  -0.0160385116 -0.0399862054  -0.0152292266 -0.039716243  0.191962531 -0.727968921
4980051000.000000  0.402181825 0.510501766  -0.0436434759 0.0131049945  -0.043229602 0.0122983102  0.372158417 -0.660133597
5010049500.000000  0.294504455 0.580890705  0.0101104148 0.0449882207  0.00933840266 0.0445163749  0.533372382 -0.557827129
5040048000.000000  0.160173638 0.632464611  0.047672058 -0.00514572237  0.0470983757 -0.00438753351  0.658035831 -0.409055695
5070046500.000000  0.0351364045 0.663262343  0.00518259184 -0.0459877823  0.00587218531 -0.0453368569  0.741922896 -0.241227732
5100045000.000000  -0.0954086026 0.65302672  -0.036839083 -0.0129228936  -0.0361500276 -0.0133697041  0.788073334 -0.0563617769
5130043500.000000  -0.216416013 0.601265494  -0.0119532342 0.0297879874  -0.0124195713 0.0291687528  0.789813493 0.119561627
5160042000.000000  -0.336259044 0.518914929  0.028994594 0.00728137711  0.0285269448 0.00770168513  0.749796113 0.293185704
5190040500.000000  -0.433922699 0.404215384  0.00417354028 -0.0305861833  0.00465139013 -0.0300043442  0.665540508 0.445142277
5220039000.000000  -0.519256245 0.280709003  -0.0311970349 -0.00135047272  -0.0306826076 -0.00187668969  0.54932066 0.573288431
5250037500.000000  -0.560958921 0.138081428  3.00246308e-06 0.0369358876  -0.000938282206 0.0363600771  0.399204757 0.668295807
5280036000.000000  -0.572236956 -0.00283217479  0.0443840588 0.0088814391  0.0433317566 0.00990907445  0.243972088 0.733269288
5310034500.000000  -0.536929754 -0.149669375  0.0224755573 -0.0436933  0.0231914026 -0.042217462  0.0784673803 0.756705505
5340033000.000000  -0.478290556 -0.278121478  -0.0331045669 -0.0291836476  -0.0316501922 -0.0293617404  -0.0775473981 0.751868558
5370031500.000000  -0.385126952 -0.387611449  -0.0281814794 0.0231318077  -0.0281946621 0.0220354468  -0.225462151 0.703940876
5400030000.000000  -0.272830007 -0.468235684  0.0165062488 0.0265259232  0.0154442684 0.0264601359  -0.364028958 0.621793805
5430028500.000000  -0.151662502 -0.523307454  0.0232013805 -0.00885228674  0.0229499381 -0.00797362313  -0.485685189 0.510429849
5460027000.000000  -0.0219217515 -0.543441913  -0.00881925318 -0.0130513873  -0.00824640759 -0.0129815814  -0.581023327 0.365570509
5490025500.000000  0.101330403 -0.545062176  -0.00689973163 0.0205378832  -0.00732853072 0.0200192824  -0.649254865 0.214217732
5520024000.000000  0.22236231 -0.505494798  0.0326521808 0.0157181585  0.0317440824 0.0163214519  -0.667656153 0.051975909
5550022500.000000  0.334216459 -0.456697714  0.0297373132 -0.0298015337  0.029840975 -0.0287298146  -0.641156893 -0.107099219
5580021000.000000  0.425666707 -0.382838635  -0.0201464191 -0.0377520031  -0.0191859232 -0.0374229893  -0.553378008 -0.265369534
5610019500.000000  0.491412141 -0.300744902  -0.0417585795 0.0127636394  -0.0412500033 0.0119651252  -0.434223634 -0.410871154
5640018000.000000  0.528124116 -0.201042649  0.00223280914 0.0454280683  0.00154375089 0.0447177637  -0.284551079 -0.523702173
5670016500.000000  0.542000267 -0.0898157053  0.0399482794 0.0117393807  0.0391327581 0.0120600813  -0.124023925 -0.586419487
5700015000.000000  0.540137706 0.0255567582  0.0154041318 -0.0241370155  0.0154809754 -0.0235290163  0.0409493473 -0.586267685
5730013500.000000  0.520847581 0.132577601  -0.0141337979 -0.00529775229  -0.0138046126 -0.00532337655  0.207517955 -0.529416409
5760012000.000000  0.482486109 0.216605217  0.00372904208 0.0162440091  0.00346903329 0.0159670744  0.3549729 -0.434514991
5790010500.000000  0.406299999 0.289170359  0.0220948155 -0.0051826007  0.021889448 -0.00470875085  0.477015302 -0.304850679
5820009000.000000  0.319007846 0.358634213  -0.00467204651 -0.0258339788  -0.0042392103 -0.0254907462  0.548514793 -0.16514702
5850007500.000000  0.22529231 0.411482929  -0.0324604874 0.00649090928  -0.0319055385 0.00595099484  0.575158197 -0.0070291956
5880006000.000000  0.140359461 0.44114372  0.00118639273 0.0411154285  0.000674465169 0.0403692739  0.561978378 0.139143548
5910004500.000000  0.0522722867 0.444462993  0.0432183443 0.0124652932  0.042210498 0.012722635  0.509225273 0.274730267
5940003000.000000  -0.0308625754 0.420603376  0.0225620968 -0.0349672445  0.0226266962 -0.0339856543  0.427661456 0.385125258
5970001500.000000  -0.1140852 0.378605639  -0.026409561 -0.0221841877  -0.0255283611 -0.0222872079  0.323471203 0.476429115
6000000000.000000  -0.184715866 0.317803655  -0.0168437729 0.02300411  -0.0170268245 0.0221999696  0.204926807 0.538564013
