! 2-port S-parameters written by miniscope-char acquisition
! instrument: Pico Technology Ltd,PicoVNA-106,10080,5.3.4
! transport: scpi
! endpoint: 127.0.0.1:5025
! demo: false
! calibration: software
# HZ S RI R 50
300000.000000  0.0429349509 -0.0141635575  0.950082804 -0.0358435656  0.994530879 -0.00763714713  0.0382824447 -0.0184565439
30298500.000000  -0.0334961427 0.013244351  -0.729504992 -0.443782772  -0.704898413 -0.451352129  -0.0282827903 0.0186123683
60297000.000000  -0.0518061907 -0.00720943338  0.275784477 0.743470102  0.256452189 0.735721539  -0.0500752774 0.00221511145
90295500.000000  -0.0241797963 -0.0211502811  0.243159934 -0.710758858  0.248721293 -0.695388496  -0.0275734219 -0.015182673
120294000.000000  0.0152532945 0.00629775349  -0.612503907 0.369606708  -0.607329121 0.353035033  -0.00851942716 0.0243443558
150292500.000000  -0.00840585614 0.0481978048  0.673673171 0.108001169  0.660438461 0.112874126  -0.0314322893 0.0556702972
180291000.000000  -0.0508344072 0.0429117058  -0.427138899 -0.49796182  -0.413675269 -0.493885588  -0.0724558507 0.0429380367
210289500.000000  -0.0643263196 0.00416029454  0.0020283903 0.632465942  -0.00502118533 0.620489009  -0.0873623912 0.00731755778
240288000.000000  -0.0313223211 -0.0391312156  0.397676862 -0.46525829  0.396250375 -0.452337226  -0.0836578575 -0.00255216287
270286500.000000  -0.00398959407 -0.0240895487  -0.58919864 0.0892366876  -0.578776137 0.0804690885  -0.0699560379 -0.00939799347
300285000.000000  -0.00939800874 0.00110070812  0.4857926 0.307893445  0.473220219 0.30755854  -0.0780896522 -0.00162179406
330283500.000000  -0.0319068148 -0.0360996389  -0.161800073 -0.537919092  -0.15251428 -0.529984692  -0.0695907882 -0.00647940266
360282000.000000  -0.0434275437 -0.07880009  -0.223848252 0.496714123  -0.22481285 0.484187397  -0.096213433 -0.0374916937
390280500.000000  -0.00160536747 -0.103221746  0.480623918 -0.221967571  0.47465212 -0.212334663  -0.0789693337 -0.0678374318
420279000.000000  0.0285912101 -0.107469861  -0.496839753 -0.143488136  -0.486169001 -0.146854409  -0.02802669 -0.0926899624
450277500.000000  0.0497203646 -0.0969602332  0.273355446 0.428762335  0.263539977 0.424380945  0.00672169499 -0.0749532207
480276000.000000  0.0510184922 -0.0964962  0.0748206388 -0.488334236  0.0795241101 -0.47899735  0.00195791913 -0.0353904755
510274500.000000  0.0611016186 -0.101158073  -0.368053818 0.310382005  -0.365176992 0.300654663  -0.0138033216 -0.046640349
540273000.000000  0.0887046801 -0.103848221  0.473191147 0.00981586295  0.46593976 0.0157425313  0.00890504353 -0.0688397453
570271500.000000  0.110185258 -0.0934188624  -0.33998702 -0.310451797  -0.330670968 -0.309801422  0.057186982 -0.0481984446
600270000.000000  0.131649135 -0.0724364995  0.0486815748 0.446840355  0.0428418177 0.440410468  0.0806583034 0.0107374322
630268500.000000  0.144314189 -0.0347969833  0.254016849 -0.360389526  0.254322005 -0.351725538  0.0626086312 0.0525568089
660267000.000000  0.118789753 -0.0137254998  -0.422626429 0.0984378875  -0.416878983 0.0918481695  0.0293229644 0.0387411792
690265500.000000  0.104651907 0.0101209085  0.375808356 0.202235084  0.36697042 0.20363928  0.0212180848 0.0393853898
720264000.000000  0.100384262 0.0279667384  -0.144278414 -0.392175264  -0.137052487 -0.387246924  0.0268126564 0.0568362887
750262500.000000  0.104453621 0.0628585327  -0.148284484 0.384145821  -0.150772994 0.376091624  0.0192054776 0.0834041954
780261000.000000  0.0879290181 0.102745767  0.358517436 -0.185824896  0.355272131 -0.177780016  -0.0279321653 0.104965171
810259500.000000  0.0426727008 0.138986148  -0.381068439 -0.0942321983  -0.373963732 -0.0976760366  -0.0714902949 0.0983821096
840258000.000000  0.00859018384 0.149827127  0.218888791 0.317834113  0.211213765 0.316138917  -0.114116801 0.0522378505
870256500.000000  -0.0324929374 0.123431647  0.0465317736 -0.377572946  0.0515692303 -0.371175523  -0.123168804 0.035139899
900255000.000000  -0.0602731764 0.123208073  -0.278848377 0.246346528  -0.278426621 0.238332631  -0.128309375 0.0113032216
930253500.000000  -0.0715644304 0.135672539  0.362604754 0.00472705231  0.356929328 0.00970880653  -0.163330766 0.0157136208
960252000.000000  -0.12778168 0.130282593  -0.261083851 -0.240264148  -0.254185903 -0.240281162  -0.189147573 -0.0224869355
990250500.000000  -0.178150871 0.0964851428  0.0340391059 0.346391649  0.029335926 0.341554628  -0.194504248 -0.0979065162
1020249000.000000  -0.199177056 0.0223402954  0.202197694 -0.276711228  0.201909863 -0.270184684  -0.159724021 -0.151979949
1050247500.000000  -0.198047043 -0.046128954  -0.327539137 0.0720075091  -0.323208346 0.067744182  -0.115037024 -0.187680835
1080246000.000000  -0.199985393 -0.0717975915  0.28641807 0.161927254  0.280400005 0.161428131  -0.0680501329 -0.191189543
1110244500.000000  -0.189747301 -0.0836584086  -0.101195585 -0.30433923  -0.0968348555 -0.300082634  -0.0647343139 -0.23460697
1140243000.000000  -0.214987495 -0.150289567  -0.126383348 0.285204068  -0.126958969 0.278709505  -0.0580438199 -0.261431348
1170241500.000000  -0.181043736 -0.210083452  0.279348972 -0.128567664  0.275856198 -0.123250438  0.0241877892 -0.268832343
1200240000.000000  -0.120580074 -0.257681968  -0.290019641 -0.0863229569  -0.284271981 -0.0877825959  0.10702829 -0.249387582
1230238500.000000  -0.0497265971 -0.259236748  0.158682571 0.254986163  0.152768159 0.252295882  0.138945133 -0.200674422
1260237000.000000  -0.0126155825 -0.271194527  0.0490002622 -0.290863885  0.0515238464 -0.285701721  0.152702952 -0.146024176
1290235500.000000  0.0142655559 -0.277601492  -0.22699527 0.179498161  -0.225228805 0.175014814  0.176732864 -0.135236671
1320234000.000000  0.0682251734 -0.296217271  0.281646868 0.0164916464  0.277622865 0.0179408215  0.217967972 -0.112375182
1350232500.000000  0.147320825 -0.286455057  -0.197592529 -0.194876187  -0.193875672 -0.193159663  0.251676185 -0.0460528488
1380231000.000000  0.218157141 -0.245630422  0.0195855212 0.272018486  0.0182874124 0.268371689  0.244371522 0.041638353
1410229500.000000  0.264101179 -0.194382998  0.162775189 -0.214781093  0.161004834 -0.211136905  0.197223322 0.108430975
1440228000.000000  0.281983758 -0.150958786  -0.262870067 0.0489399827  -0.259348051 0.0472489755  0.146923481 0.126691235
1470226500.000000  0.304291738 -0.104151803  0.224420984 0.136562468  0.220566534 0.135614567  0.1184514 0.155090466
1500225000.000000  0.328587301 -0.0565700338  -0.0731752679 -0.248359549  -0.0707412163 -0.245535778  0.0926820478 0.204318753
1530223500.000000  0.337052545 0.0243003599  -0.109327602 0.230082375  -0.109604018 0.226450055  0.0138200183 0.244772391
1560222000.000000  0.331890891 0.112346141  0.229800114 -0.097374511  0.227498362 -0.0948109462  -0.0828268954 0.260093963
1590220500.000000  0.278254014 0.185938577  -0.234606397 -0.0817833988  -0.231406142 -0.0820917176  -0.154131374 0.217663767
1620219000.000000  0.220663754 0.231561339  0.117644835 0.215067905  0.115452195 0.213073043  -0.197044301 0.152361317
1650217500.000000  0.154550188 0.264061297  0.0556696758 -0.236419885  0.0562897645 -0.233633203  -0.234156719 0.106397759
1680216000.000000  0.102956043 0.305338553  -0.197435873 0.13379116  -0.195837104 0.131526613  -0.263425413 0.0574673006
1710214500.000000  0.0389699234 0.328373141  0.230799489 0.0321613564  0.228329937 0.0324316597  -0.309337202 -0.0234750218
1740213000.000000  -0.0582099188 0.339353938  -0.146485593 -0.1739354  -0.144123976 -0.172746098  -0.322222007 -0.112552512
1770211500.000000  -0.160525614 0.310245613  -0.00736308909 0.221963823  -0.0082892789 0.219549883  -0.292377444 -0.190700784
1800210000.000000  -0.216150593 0.258477042  0.153463775 -0.158100605  0.152630212 -0.15609021  -0.216889103 -0.245006951
1830208500.000000  -0.260981873 0.193526301  -0.21609922 0.0144578201  -0.213828379 0.0136426874  -0.157791395 -0.289252262
1860207000.000000  -0.30185155 0.147263001  0.166175392 0.131398766  0.164083091 0.130405758  -0.106795428 -0.324208853
1890205500.000000  -0.336639219 0.0869291745  -0.0340721315 -0.202919385  -0.033319547 -0.200926928  -0.0401534185 -0.377339035
1920204000.000000  -0.373391704 -0.00831928365  -0.10616007 0.168949956  -0.105462567 0.167164817  0.039242349 -0.409535668
1950202500.000000  -0.370653375 -0.125425445  0.188349591 -0.0539753582  0.186517276 -0.0529799031  0.122184128 -0.401890615
1980201000.000000  -0.3217074 -0.208336496  -0.175335946 -0.0848417745  -0.173460106 -0.084500622  0.196645351 -0.340268726
2010199500.000000  -0.261610758 -0.288132632  0.0758541816 0.177055543  0.0749217177 0.175262825  0.266736267 -0.276647409
2040198000.000000  -0.213124287 -0.364375924  0.0590280906 -0.176457341  0.0585566761 -0.174602946  0.325210755 -0.217551062
2070196500.000000  -0.183380559 -0.428482443  -0.158243242 0.0848318777  -0.15631046 0.0839798841  0.37339923 -0.182323537
2100195000.000000  -0.0988946553 -0.464750111  0.172827891 0.0421564885  0.170944034 0.0414817808  0.417857137 -0.0844369888
2130193500.000000  0.021295874 -0.483215928  -0.100732756 -0.142178098  -0.0997521677 -0.140351947  0.423610912 0.0231418417
2160192000.000000  0.134357651 -0.469436034  -0.0168471087 0.173491724  -0.0162189513 0.171625342  0.382467798 0.134050935
2190190500.000000  0.232339834 -0.433236831  0.126691384 -0.116072926  0.125048858 -0.115185033  0.321992045 0.214542788
2220189000.000000  0.311621995 -0.397745815  -0.16869293 0.00167307235  -0.166657251 0.00204302662  0.254462356 0.266009985
2250187500.000000  0.376832322 -0.345943638  0.123104181 0.112516654  0.121653071 0.111082859  0.197596633 0.322361973
2280186000.000000  0.445459409 -0.262597497  -0.0161131558 -0.16205073  -0.0157198982 -0.159721571  0.103445963 0.364072101
2310184500.000000  0.496248231 -0.160157311  -0.0937347497 0.131568316  -0.0926839427 0.129635066  -0.0247058842 0.375987495
2340183000.000000  0.525048631 -0.049438244  0.15471324 -0.0335337784  0.152443563 -0.0327978378  -0.145398849 0.343759167
2370181500.000000  0.520429896 0.0465462506  -0.135797764 -0.0779925081  -0.133647041 -0.0766669681  -0.231488868 0.270700731
2400180000.000000  0.4874406 0.139394969  0.0451856256 0.150851975  0.0444840187 0.148459681  -0.286956889 0.212776892
2430178500.000000  0.460261966 0.230430244  0.0691868083 -0.136868905  0.0682113399 -0.134423005  -0.321378258 0.140240456
2460177000.000000  0.400073464 0.30793728  -0.142093821 0.0550608075  -0.139878541 0.0535961128  -0.371268608 0.0394682619
2490175500.000000  0.314848838 0.393459462  0.140888837 0.0556917792  0.138046821 0.0553673768  -0.380683486 -0.0774805721
2520174000.000000  0.217250255 0.442854506  -0.0661616498 -0.132186609  -0.064102991 -0.130143819  -0.343621647 -0.213349059
2550172500.000000  0.0863996066 0.468747207  -0.0370822964 0.14142832  -0.0373652656 0.138551974  -0.299336735 -0.312825866
2580171000.000000  -0.0304700905 0.469000496  0.120681963 -0.0774029728  0.119095502 -0.0751551532  -0.236155576 -0.377925146
2610169500.000000  -0.137137059 0.451822386  -0.139516494 -0.0241225101  -0.136886759 -0.0247295852  -0.165266524 -0.428966126
2640168000.000000  -0.25042042 0.415346275  0.0851996647 0.110793112  0.0830031712 0.10950715  -0.0711329255 -0.472012354
2670166500.000000  -0.365024491 0.33628824  0.00937551234 -0.135209038  0.0101434829 -0.133019216  0.0593430238 -0.498646809
2700165000.000000  -0.47259446 0.242710038  -0.0926275861 0.0881318661  -0.0916360231 0.0860321051  0.180038503 -0.508647202
2730163500.000000  -0.506822491 0.120387086  0.128003576 -0.0024901097  0.125853214 -0.00176337168  0.283080662 -0.44230064
2760162000.000000  -0.522631287 -0.0225824443  -0.0957737633 -0.0813940698  -0.093553296 -0.0805957419  0.382412874 -0.371886763
2790160500.000000  -0.514200593 -0.132891235  0.0135938151 0.122961279  0.0128566921 0.120821684  0.438531281 -0.290472505
2820159000.000000  -0.462045792 -0.257649811  0.0694945351 -0.100294746  0.068566428 -0.0983021487  0.509486608 -0.18970966
2850157500.000000  -0.404655799 -0.395749402  -0.114761306 0.0259742579  -0.112773978 0.0249618176  0.55036632 -0.0890277546
2880156000.000000  -0.31543639 -0.502803119  0.0978253878 0.0557635056  0.0958388825 0.0552275407  0.561019452 0.0340621306
2910154500.000000  -0.19466367 -0.561031364  -0.0353976832 -0.107149178  -0.0340420701 -0.105551147  0.519343207 0.153984824
2940153000.000000  -0.0634596842 -0.5829968  -0.0465674782 0.103586826  -0.0466378601 0.101344588  0.44263856 0.246501682
2970151500.000000  0.0666186275 -0.603065616  0.0999164155 -0.0469991224  0.0986341505 -0.0451021946  0.343507281 0.333376991
3000150000.000000  0.179606686 -0.603363808  -0.10377307 -0.0311891358  -0.101537003 -0.0322573453  0.254222938 0.404481716
3030148500.000000  0.292482426 -0.576526834  0.0537637313 0.0912425697  0.0511490285 0.0907559463  0.153061064 0.474412856
3060147000.000000  0.402068785 -0.521020988  0.0224505901 -0.100247669  0.0240571947 -0.0983731502  0.042958034 0.50944921
3090145500.000000  0.485761033 -0.417407301  -0.0857905169 0.0611065704  -0.0857921979 0.0587920352  -0.0807412072 0.465749145
3120144000.000000  0.564947781 -0.304363596  0.104809962 0.0103174258  0.103416483 0.0118057556  -0.21089801 0.395952963
3150142500.000000  0.617427099 -0.194601657  -0.0689221234 -0.0759173643  -0.0670872424 -0.0759820709  -0.310825393 0.304903016
3180141000.000000  0.645499358 -0.0771311523  0.0011424707 0.0998146203  -0.00023718934 0.098727042  -0.398814594 0.209336276
3210139500.000000  0.656345812 0.0468011317  0.0655608025 -0.0722267  0.0657637424 -0.0704628064  -0.468402722 0.103839165
3240138000.000000  0.644420965 0.186757845  -0.0939327716 0.00965174752  -0.0928565258 0.00816980155  -0.487381184 -0.0327894143
3270136500.000000  0.606776709 0.309505882  0.0751215589 0.0557745179  0.0732689685 0.0559370171  -0.464732892 -0.199513228
3300135000.000000  0.520218233 0.413209356  -0.0152198046 -0.0930549968  -0.0138603079 -0.0918297701  -0.389375624 -0.332083501
3330133500.000000  0.40486663 0.507912984  -0.0495506738 0.0778918808  -0.0495636582 0.0760825797  -0.297515089 -0.441259657
3360132000.000000  0.284344346 0.573582877  0.0903447312 -0.0232518957  0.0890476621 -0.0221652146  -0.190623944 -0.506609055
3390130500.000000  0.13245611 0.617841987  -0.080254635 -0.0424434482  -0.0787825055 -0.0420754145  -0.051239196 -0.562713354
3420129000.000000  -0.0210895738 0.650061411  0.0303003835 0.0812596288  0.0295743586 0.0800324683  0.0805420782 -0.584273914
3450127500.000000  -0.171270055 0.627712708  0.0330702161 -0.0808144234  0.03272848 -0.0793429359  0.231162219 -0.552208665
3480126000.000000  -0.314452915 0.559646146  -0.0772560325 0.0364145475  -0.0760994783 0.0356114164  0.365268775 -0.489797652
3510124500.000000  -0.437287095 0.448727618  0.0824232549 0.0240109259  0.0808960465 0.0239736854  0.462885932 -0.407229304
3540123000.000000  -0.541375374 0.323372797  -0.0430494104 -0.0732511136  -0.0421224588 -0.0722614327  0.537163322 -0.304816679
3570121500.000000  -0.605955601 0.187846968  -0.0192160213 0.0802098466  -0.0192103967 0.0790725489  0.584749485 -0.200896384
3600120000.000000  -0.633413453 0.0197866632  0.0679689586 -0.0474851712  0.06711829 -0.046698918  0.603378865 -0.0639132884
3630118500.000000  -0.623527131 -0.143229515  -0.0793644324 -0.0101689322  -0.0785152373 -0.0100210731  0.612040761 0.0800409939
3660117000.000000  -0.559445463 -0.301878089  0.0527256333 0.059437607  0.0522445742 0.0587934572  0.580045132 0.210272999
3690115500.000000  -0.469940872 -0.445467673  0.00121434211 -0.0779910898  0.000945443489 -0.0770846992  0.530407152 0.331379407
3720114000.000000  -0.356099016 -0.545758468  -0.0544445365 0.0548663989  -0.0534378907 0.0543300427  0.459053398 0.414062616
3750112500.000000  -0.210678367 -0.63177188  0.0776766991 -0.0053573127  0.0763783134 -0.005420121  0.347704281 0.489831009
3780111000.000000  -0.0531894147 -0.687921938  -0.0592294335 -0.0461720251  -0.0580673438 -0.0453608186  0.218185547 0.552306319
3810109500.000000  0.10917225 -0.706388504  0.0142359119 0.0702115705  0.0135146193 0.0687965447  0.0656705555 0.587403607
3840108000.000000  0.259811797 -0.68978694  0.0355380975 -0.0585245013  0.0352322262 -0.0569127305  -0.0983751184 0.592644078
3870106500.000000  0.395027514 -0.628518721  -0.0641849221 0.0177281856  -0.0630227409 0.0167423272  -0.237239681 0.544126101
3900105000.000000  0.513556327 -0.546418805  0.0594062937 0.0306534035  0.0578568065 0.0306128761  -0.361206814 0.449476093
3930103500.000000  0.60879053 -0.442043064  -0.0211168139 -0.0630646277  -0.0200893477 -0.0621431302  -0.463973733 0.338793761
3960102000.000000  0.690412071 -0.315941163  -0.0261038127 0.0603482029  -0.0263935641 0.0591508546  -0.533001852 0.189925486
3990100500.000000  0.741042774 -0.177146965  0.0601974371 -0.0263804334  0.059635849 -0.0253794987  -0.571506566 0.0127516147
4020099000.000000  0.757166088 -0.0236881066  -0.0614494027 -0.0203811069  -0.0604409315 -0.0208662921  -0.546355563 -0.162096905
4050097500.000000  0.740365634 0.129132311  0.0327196001 0.0559726558  0.0317024804 0.055928017  -0.463364472 -0.319938993
4080096000.000000  0.694820251 0.276426418  0.0128302087 -0.0626425562  0.0135403635 -0.0621279114  -0.345073804 -0.438714634
4110094500.000000  0.633939104 0.412421528  -0.0491867892 0.0378702908  -0.0492667414 0.0373759943  -0.193821449 -0.526951984
4140093000.000000  0.54610149 0.522984552  0.0603542839 0.0068734821  0.0599331121 0.00705752926  -0.0465442489 -0.594208461
4170091500.000000  0.426152637 0.624360663  -0.0388301913 -0.0443095199  -0.0382761206 -0.0438612781  0.108800133 -0.605138491
4200090000.000000  0.282606633 0.700963432  -0.00123099071 0.0593725741  -0.00153356838 0.0584524266  0.262626179 -0.566854297
4230088500.000000  0.117418938 0.738903467  0.0413832261 -0.0418512199  0.0410132656 -0.0406466897  0.391235398 -0.475926113
4260087000.000000  -0.0458071448 0.749029207  -0.0568558082 0.00482551842  -0.0558387836 0.00415262138  0.511666001 -0.353995059
4290085500.000000  -0.197020731 0.710033171  0.0446497835 0.0364503097  0.0435582696 0.0363512606  0.59994036 -0.233067669
4320084000.000000  -0.355428108 0.625879403  -0.00873586554 -0.054945002  -0.00808707755 -0.0542520862  0.670690734 -0.0981543152
4350082500.000000  -0.513503346 0.520654683  -0.0300341033 0.0460108106  -0.0298218163 0.0451575125  0.697821884 0.0329975217
4380081000.000000  -0.641216786 0.382217689  0.0518288826 -0.011428958  0.0512347394 -0.0111525549  0.681866486 0.174986607
4410079500.000000  -0.718367326 0.212779074  -0.0453947479 -0.0256292456  -0.0449358735 -0.0255081036  0.62594335 0.318216326
4440078000.000000  -0.743152235 0.0192387626  0.0153138241 0.0502580729  0.0150395473 0.050012185  0.543926777 0.440432632
4470076500.000000  -0.727196059 -0.172685238  0.0211078172 -0.0449988463  0.0211982243 -0.0446971387  0.433765308 0.545056773
4500075000.000000  -0.661120842 -0.346201422  -0.0456674734 0.0193188883  -0.0455647063 0.0190351045  0.312968479 0.626979422
4530073500.000000  -0.551921024 -0.504179569  0.0459809978 0.0172153745  0.0456822696 0.0173260468  0.168816901 0.680175847
4560072000.000000  -0.411550838 -0.633102557  -0.0221206758 -0.0426307077  -0.0216721556 -0.0424047072  0.0104119635 0.698702675
4590070500.000000  -0.242984963 -0.716812445  -0.0126955933 0.0464429022  -0.0129290575 0.0458294432  -0.160300314 0.666275356
4620069000.000000  -0.0587846037 -0.761036779  0.0386212674 -0.0261275309  0.0384396506 -0.0254113535  -0.324550226 0.596822788
4650067500.000000  0.124285209 -0.761608966  -0.0462022819 -0.00718626723  -0.0455316362 -0.00766195238  -0.455440513 0.496062357
4680066000.000000  0.28966854 -0.727253928  0.0263133804 0.0357542127  0.0255726861 0.0356465838  -0.543495216 0.362356299
4710064500.000000  0.436386956 -0.653543835  0.00310613309 -0.0445471242  0.00369241452 -0.0439802435  -0.6016603 0.198703438
4740063000.000000  0.564206844 -0.551049161  -0.0335613485 0.0303345309  -0.0335874227 0.029583566  -0.622481373 0.00724177079
4770061500.000000  0.662736218 -0.431271673  0.0415513713 -0.000313984173  0.0411176052 0.000221579173  -0.612655574 -0.191092713
4800060000.000000  0.735615838 -0.283700797  -0.0324576349 -0.0275790555  -0.031763893 -0.0276469396  -0.552605415 -0.351888207
4830058500.000000  0.785010174 -0.133348057  0.00300686647 0.040985694  0.00246397243 0.0405936344  -0.437932573 -0.484913765
4860057000.000000  0.798316866 0.0168316318  0.0242431353 -0.0312437899  0.0243203695 -0.0306273841  -0.294796232 -0.577061424
4890055500.000000  0.779777351 0.173024794  -0.0397352246 0.00629460799  -0.0393256426 0.00583622728  -0.12259329 -0.634798712
4920054000.000000  0.737945096 0.32623511  0.0308454151 0.0214324309  0.0302578678 0.0213900853  0.0611539325 -0.649934021
4950052500.000000  0.671697349 0.461645174  -0.0083067757 -0.0352055731  -0.00780162733 -0.0348594824  0.245791215 -0.622707714
4980051000.000000  0.573190555 0.574924943  -0.0190511421 0.0313174485  -0.0191494123 0.0307499559  0.406751653 -0.542216425
5010049500.000000  0.447998995 0.666972003  0.0347274184 -0.00973679167  0.0343146402 -0.00919470467  0.538787514 -0.424151572
5040048000.000000  0.301678412 0.737748801  -0.0322486177 -0.0149369105  -0.0316279641 -0.0150935703  0.641695752 -0.278749456
5070046500.000000  0.138542407 0.777741436  0.0139116713 0.0328912228  0.0133340408 0.0325925308  0.709363939 -0.123651145
5100045000.000000  -0.0372494201 0.784291467  0.0127254469 -0.0318863381  0.0129752022 -0.0312765769  0.732147106 0.0404543707
5130043500.000000  -0.207301521 0.749532776  -0.0284270842 0.0149714185  -0.0283219997 0.0143840959  0.716459554 0.207738779
5160042000.000000  -0.365927786 0.667546026  0.034018022 0.00823395859  0.0334983064 0.00861624048  0.653706086 0.36118658
5190040500.000000  -0.505893713 0.54715398  -0.0181204878 -0.0295061839  -0.0175057131 -0.0293015748  0.551220032 0.494638076
5220039000.000000  -0.623400948 0.398773746  -0.003486087 0.0324947505  -0.00391815913 0.0320279279  0.420393487 0.607401434
5250037500.000000  -0.700482122 0.232068524  0.0258304473 -0.021837894  0.0257155847 -0.0210450616  0.277413508 0.686554743
5280036000.000000  -0.728299596 0.0447467499  -0.0314804704 -0.0029949754  -0.031009699 -0.00341306867  0.127711358 0.732935772
5310034500.000000  -0.715858031 -0.15687238  0.0218783293 0.0235571544  0.0210331054 0.0235553456  -0.0181038826 0.729602925
5340033000.000000  -0.656821539 -0.336995042  0.00163675157 -0.0327182526  0.00222960183 -0.0320397616  -0.175271759 0.681073941
5370031500.000000  -0.549646208 -0.489493776  -0.0227695993 0.0234429412  -0.0226576917 0.0225180551  -0.326521405 0.602199572
5400030000.000000  -0.407320306 -0.610219605  0.0334765968 -0.00132777769  0.0327513806 -0.000611967932  -0.460907065 0.498717639
5430028500.000000  -0.245437052 -0.694334253  -0.02402447 -0.0203292949  -0.0230529546 -0.0203634581  -0.571063344 0.371242512
5460027000.000000  -0.072324541 -0.740470178  0.00457065767 0.0318462812  0.0037075584 0.0312591886  -0.650240685 0.22492028
5490025500.000000  0.105410583 -0.75176176  0.0200306759 -0.0230642716  0.0201320193 -0.0220931138  -0.681264064 0.0651514293
5520024000.000000  0.268377488 -0.719396043  -0.0279273775 0.0042473544  -0.0274479229 0.00365538648  -0.664873703 -0.110776384
5550022500.000000  0.414102055 -0.640878605  0.0250541574 0.0183755903  0.0243096684 0.0185523074  -0.598214091 -0.28121531
5580021000.000000  0.543723063 -0.53065586  -0.00336887225 -0.0290414993  -0.0028286462 -0.0284934557  -0.4937157 -0.436284579
5610019500.000000  0.64723683 -0.406363026  -0.0156492751 0.0237987862  -0.0158147883 0.0231819557  -0.351546387 -0.554443903
5640018000.000000  0.716931344 -0.268715345  0.028138706 -0.00498476102  0.0277570725 -0.00444602928  -0.180304868 -0.633788486
5670016500.000000  0.756485905 -0.120104098  -0.0228325537 -0.0132594936  -0.0222229381 -0.0134700303  0.011327711 -0.659096953
5700015000.000000  0.763804856 0.0275085884  0.0085516999 0.0266398544  0.00800560064 0.0262752109  0.210614948 -0.636116525
5730013500.000000  0.737902762 0.175670413  0.0129843912 -0.0218436631  0.0129790202 -0.0212624344  0.384235134 -0.570119726
5760012000.000000  0.688346343 0.314625554  -0.0209612135 0.00889062813  -0.02068208 0.00847007046  0.52627323 -0.459185721
5790010500.000000  0.614346999 0.433855709  0.023767 0.00937044564  0.0232620044 0.0095392364  0.624829348 -0.32076515
5820009000.000000  0.514116517 0.534243962  -0.00849840772 -0.0230633666  -0.00806394998 -0.0226648898  0.679709376 -0.158275854
5850007500.000000  0.392605032 0.615888898  -0.00763242765 0.0223583441  -0.00758910776 0.0218237303  0.684607971 0.0182605211
5880006000.000000  0.263392586 0.676589086  0.0202378292 -0.0122851024  0.0200035271 -0.011903754  0.654714011 0.197100766
5910004500.000000  0.12742487 0.712049711  -0.0229535762 -0.00408747183  -0.0224768694 -0.00427680415  0.597755685 0.351696664
5940003000.000000  -0.00996285065 0.715327289  0.0135371565 0.0195881828  0.0129777199 0.0193454298  0.508691318 0.470637581
5970001500.000000  -0.149917367 0.684635343  0.00259977303 -0.0226670785  0.00287474632 -0.0221964401  0.395465552 0.565165544
6000000000.000000  -0.286464054 0.623038962  -0.0183543863 0.0173239518  -0.0183281381 0.0166248898  0.265651203 0.6330846
