! 2-port S-parameters written by miniscope-char acquisition
! instrument: Pico Technology Ltd,PicoVNA-106,10080,5.3.4
! transport: scpi
! endpoint: 127.0.0.1:5025
! demo: false
! calibration: software
# HZ S RI R 50
300000.000000  0.00914941129 -0.0143080116  0.983715653 -0.00729837056  1.0295029 0.0275421095  0.00293915837 -0.0197398561
30298500.000000  0.0298998229 -0.00223221493  0.956658124 -0.227340154  0.939318207 -0.196975642  0.0245679366 0.00178854628
60297000.000000  0.030589785 -0.0319927935  0.870066179 -0.436116773  0.861992367 -0.405482142  0.0143494237 -0.0193479302
90295500.000000  0.0139266492 -0.0572135832  0.739829988 -0.619715358  0.735207568 -0.594605385  -0.0125421335 -0.0311709176
120294000.000000  -0.00979148386 -0.0731811412  0.572260349 -0.767228098  0.573613875 -0.739186117  -0.0418904359 -0.0287614435
150292500.000000  -0.0398934655 -0.0724728673  0.37891458 -0.867945403  0.382810642 -0.844532625  -0.0667377638 -0.0170463665
180291000.000000  -0.0640653479 -0.0542329842  0.171765587 -0.925088355  0.180789125 -0.901658416  -0.080166058 0.000356887359
210289500.000000  -0.0724968011 -0.0233780779  -0.0415881237 -0.933841925  -0.0269605502 -0.91360731  -0.0776584672 0.0156321799
240288000.000000  -0.0558082182 0.00717480876  -0.249263956 -0.898119604  -0.2311306 -0.881868979  -0.0600332106 0.0212826158
270286500.000000  -0.0188247348 0.018596254  -0.449388682 -0.817666155  -0.426910889 -0.805646077  -0.0317908613 0.0029131917
300285000.000000  0.0243632047 0.00485200451  -0.617311575 -0.685441653  -0.59404151 -0.678411635  -0.00944908232 -0.0286141409
330283500.000000  0.059521476 -0.0356206767  -0.756407758 -0.523243722  -0.731925403 -0.522946704  0.001356635 -0.0718881157
360282000.000000  0.0682611385 -0.0859805345  -0.849457198 -0.335470773  -0.824964146 -0.338527302  -0.00199163063 -0.115296678
390280500.000000  0.046854351 -0.127668109  -0.894812584 -0.135064368  -0.873724457 -0.145012495  -0.0185948051 -0.142030154
420279000.000000  0.0111741935 -0.134563983  -0.90008862 0.0690595085  -0.881601114 0.0547048332  -0.0381118036 -0.144681228
450277500.000000  -0.023147046 -0.11347763  -0.868717949 0.265502146  -0.853606092 0.247598464  -0.0566111837 -0.113966434
480276000.000000  -0.0175938929 -0.0609062226  -0.780723291 0.45385021  -0.772063867 0.432791907  -0.0401396546 -0.0648166773
510274500.000000  0.0128577528 -0.00757410839  -0.653121042 0.620759373  -0.647686134 0.597677269  0.00207274385 -0.0120951414
540273000.000000  0.0720404275 0.0160967913  -0.493921133 0.753123495  -0.496979184 0.731886874  0.057895609 0.0251797657
570271500.000000  0.117516268 0.0214597859  -0.30285372 0.837045833  -0.310505695 0.815139324  0.108436987 0.0352267085
600270000.000000  0.143250402 -0.00293212831  -0.110223161 0.874059263  -0.121130027 0.855598714  0.136853366 0.0274711038
630268500.000000  0.130597791 -0.0340017151  0.0830908092 0.876715601  0.0675967087 0.860575319  0.132980369 0.00535951731
660267000.000000  0.0867380413 -0.0421404005  0.275146478 0.838736146  0.256962756 0.826027216  0.0912694265 -0.00884447985
690265500.000000  0.0319641782 -0.0160144973  0.461485873 0.755811604  0.439451703 0.747661807  0.029456309 0.000772975043
720264000.000000  -0.0100269486 0.0385824008  0.621551193 0.625597989  0.59881086 0.622280614  -0.0341960722 0.0351754164
750262500.000000  -0.0201086046 0.0998776958  0.748601436 0.463560805  0.725850102 0.466491213  -0.0877585322 0.0811055452
780261000.000000  -0.00120273128 0.161841786  0.822688006 0.28486333  0.800529347 0.292502901  -0.102118659 0.125780236
810259500.000000  0.0416066793 0.17369775  0.851945978 0.0970789915  0.833774256 0.108090011  -0.0988594151 0.161780134
840258000.000000  0.0721071641 0.138881825  0.855238013 -0.088742925  0.83950359 -0.0728232613  -0.0774876763 0.150869295
870256500.000000  0.0696025407 0.0720676214  0.821305116 -0.280881072  0.809572918 -0.261914504  -0.0633485915 0.0962854528
900255000.000000  0.00548513666 0.000557103953  0.731721795 -0.464036158  0.725555908 -0.442626629  -0.0703043177 0.010920746
930253500.000000  -0.0901219461 -0.0410908366  0.597249301 -0.615191466  0.594911204 -0.593055687  -0.11622577 -0.0743002005
960252000.000000  -0.18915435 -0.033893502  0.434527696 -0.720994019  0.437679687 -0.700785317  -0.174914616 -0.139881742
990250500.000000  -0.252545176 0.0103818202  0.265927961 -0.786211822  0.273356556 -0.76629574  -0.224476408 -0.16966088
1020249000.000000  -0.25544049 0.0655864814  0.0974065086 -0.821489889  0.1077222 -0.803062397  -0.242202953 -0.163375906
1050247500.000000  -0.194759439 0.0957140065  -0.0821320703 -0.829887372  -0.0679778438 -0.813297379  -0.210566671 -0.133023331
1080246000.000000  -0.0929140035 0.0682906574  -0.274445473 -0.797479515  -0.259132868 -0.783340291  -0.123606293 -0.108138403
1110244500.000000  0.000502527581 -0.0291159834  -0.462803127 -0.705711589  -0.442983765 -0.696643428  0.000799260551 -0.11830792
1140243000.000000  0.0408629423 -0.165086161  -0.610785785 -0.561348077  -0.589476138 -0.556166551  0.118081063 -0.169551353
1170241500.000000  0.0188297837 -0.28011  -0.70329809 -0.395422955  -0.682404811 -0.395879802  0.192312035 -0.240224415
1200240000.000000  -0.0388848689 -0.339819989  -0.753242065 -0.23433279  -0.734390518 -0.238056171  0.215187815 -0.29461011
1230238500.000000  -0.102411629 -0.333066329  -0.782473018 -0.0766402469  -0.764035144 -0.0848356714  0.19731842 -0.311657686
1260237000.000000  -0.136917066 -0.262828409  -0.791524664 0.0898399793  -0.776850179 0.0784507849  0.151313669 -0.275745419
1290235500.000000  -0.107287743 -0.154944466  -0.768580751 0.275886141  -0.756027706 0.262481478  0.105561463 -0.179414822
1320234000.000000  -0.00368586485 -0.0580332636  -0.683010313 0.466829593  -0.67301599 0.450622143  0.0953875296 -0.0383167977
1350232500.000000  0.138456576 -0.0211339395  -0.535908849 0.618106371  -0.529937558 0.601682076  0.134455218 0.103105402
1380231000.000000  0.26177646 -0.0516468316  -0.363205978 0.705219485  -0.361295585 0.689292427  0.203397701 0.201091667
1410229500.000000  0.32497568 -0.11670755  -0.201440227 0.744700818  -0.202124635 0.728696634  0.262647933 0.24226796
1440228000.000000  0.315846522 -0.172812535  -0.0529930455 0.765066824  -0.0576385519 0.750119187  0.286902026 0.231191313
1470226500.000000  0.245700534 -0.184307335  0.104193248 0.77424999  0.0964474855 0.760081742  0.253088607 0.180944955
1500225000.000000  0.147860193 -0.118844198  0.285579534 0.753031524  0.274995201 0.741576641  0.147223557 0.119718786
1530223500.000000  0.0775323493 0.0199802808  0.470476163 0.665225396  0.457190032 0.657226476  -0.0187328645 0.0886144323
1560222000.000000  0.0798859164 0.175877882  0.609626437 0.519508078  0.594625761 0.514208208  -0.184850083 0.113622057
1590220500.000000  0.13574165 0.279688018  0.686951026 0.359220325  0.671500334 0.356524994  -0.298948262 0.162539227
1620219000.000000  0.19553059 0.306108676  0.726484745 0.209398074  0.712497799 0.210675733  -0.34878923 0.194772442
1650217500.000000  0.221521415 0.261782094  0.755733449 0.0674458203  0.742447836 0.0710271988  -0.341251885 0.187802903
1680216000.000000  0.18953247 0.164166429  0.77105511 -0.0925623598  0.759119236 -0.0862794966  -0.286358617 0.127393126
1710214500.000000  0.0732225164 0.0547525052  0.744139984 -0.280643775  0.732928475 -0.271456711  -0.215355869 0.00500450802
1740213000.000000  -0.109424059 0.00356569062  0.642775967 -0.460491144  0.634513216 -0.447877475  -0.169383947 -0.159842024
1770211500.000000  -0.279012065 0.0375618319  0.489932937 -0.5812804  0.485493649 -0.567912166  -0.169241293 -0.313881124
1800210000.000000  -0.369095284 0.119652785  0.33876053 -0.639275236  0.337150026 -0.627339287  -0.190283525 -0.411151662
1830208500.000000  -0.37264325 0.198383278  0.208516164 -0.673388323  0.208327763 -0.660801157  -0.201873311 -0.446294468
1860207000.000000  -0.300747866 0.240586348  0.0814371211 -0.707169762  0.0830822473 -0.694986823  -0.186197593 -0.424817382
1890205500.000000  -0.167036113 0.208684051  -0.0760282345 -0.7341406  -0.0715670405 -0.72233195  -0.120891569 -0.355836333
1920204000.000000  -0.0253780738 0.060604033  -0.272385572 -0.709849832  -0.265087903 -0.700797424  0.0154213858 -0.273707199
1950202500.000000  0.027401597 -0.170538273  -0.453968679 -0.595259377  -0.443776467 -0.587509323  0.200964284 -0.238770232
1980201000.000000  -0.0331913178 -0.366652906  -0.553865644 -0.433579546  -0.543508811 -0.429365331  0.358769602 -0.265694626
2010199500.000000  -0.130161385 -0.464792086  -0.595152183 -0.29574624  -0.583807998 -0.292754198  0.447822736 -0.306149368
2040198000.000000  -0.20547168 -0.476463124  -0.623724087 -0.185713734  -0.613029785 -0.184399027  0.470184905 -0.322065534
2070196500.000000  -0.23387962 -0.419726489  -0.665889203 -0.0744371057  -0.654166238 -0.0741020676  0.432535291 -0.297994808
2100195000.000000  -0.188916334 -0.307407217  -0.706351153 0.0770567691  -0.694302237 0.0748690915  0.336708049 -0.212428756
2130193500.000000  -0.0389041655 -0.185825912  -0.691250173 0.27985423  -0.678645321 0.273682021  0.220670634 -0.0386454813
2160192000.000000  0.1833646 -0.14552016  -0.573111256 0.467723512  -0.563417814 0.458704173  0.161760262 0.195511718
2190190500.000000  0.363627569 -0.199507685  -0.406681445 0.566287872  -0.400809754 0.555690127  0.175891667 0.390372221
2220189000.000000  0.447395285 -0.271594592  -0.268493752 0.600576822  -0.265544877 0.589094922  0.204925022 0.495224096
2250187500.000000  0.448152711 -0.312167719  -0.160863895 0.625484477  -0.160951434 0.61319186  0.210633914 0.517363319
2280186000.000000  0.38389603 -0.300986008  -0.0518612319 0.663590354  -0.0543775282 0.650487295  0.184027133 0.461151248
2310184500.000000  0.276609239 -0.213575287  0.0977112174 0.699467674  0.0917013514 0.68642564  0.106540091 0.330805808
2340183000.000000  0.190802716 -0.0291699729  0.292263972 0.673941924  0.282974553 0.662962059  -0.0527252191 0.165615012
2370181500.000000  0.200686072 0.18668067  0.45879119 0.555056207  0.44717702 0.54549226  -0.27001844 0.0524975722
2400180000.000000  0.276516754 0.327647064  0.53878008 0.407885016  0.526899456 0.400907297  -0.447967804 0.0178407798
2430178500.000000  0.342911241 0.373871276  0.57279252 0.290933483  0.559476576 0.287017843  -0.539584709 0.0132810546
2460177000.000000  0.36729018 0.348281434  0.60791058 0.197063385  0.593102689 0.196543158  -0.54690573 0.00874061473
2490175500.000000  0.326786385 0.266870767  0.660108872 0.087261128  0.644048547 0.0913859394  -0.470975356 -0.0122711494
2520174000.000000  0.18539385 0.165310296  0.697796667 -0.0772631313  0.681190809 -0.0682072774  -0.318933885 -0.0827563094
2550172500.000000  -0.0476492542 0.12801513  0.651608568 -0.275622251  0.63776184 -0.263035573  -0.150095023 -0.234414932
2580171000.000000  -0.265925649 0.197311609  0.519113562 -0.418484495  0.510935879 -0.40279018  -0.0443014109 -0.424356548
2610169500.000000  -0.391562174 0.300778517  0.383766013 -0.480197738  0.380158072 -0.464886113  0.000910436588 -0.571325965
2640168000.000000  -0.432799715 0.373658014  0.284082202 -0.507790103  0.28386305 -0.49390104  0.0285278742 -0.644782677
2670166500.000000  -0.405197899 0.393983149  0.206237737 -0.544999983  0.208220224 -0.531707719  0.0578853022 -0.645200049
2700165000.000000  -0.311382624 0.344321832  0.109888471 -0.606884095  0.113519791 -0.593002943  0.0944216448 -0.566435287
2730163500.000000  -0.177743478 0.175834109  -0.0534228574 -0.65732038  -0.0458912506 -0.64305953  0.173254377 -0.407642689
2760162000.000000  -0.11991498 -0.107953756  -0.255400702 -0.609790497  -0.243271135 -0.599115933  0.333020255 -0.231957809
2790160500.000000  -0.186175906 -0.35983461  -0.388316976 -0.475827898  -0.374453266 -0.469353914  0.517073648 -0.121081855
2820159000.000000  -0.275872255 -0.49377293  -0.437773573 -0.352391107  -0.425342046 -0.348574091  0.642140029 -0.0648100576
2850157500.000000  -0.326373314 -0.535646683  -0.466659921 -0.268858357  -0.453873104 -0.267521037  0.689569916 -0.024477819
2880156000.000000  -0.327118248 -0.507514246  -0.51555859 -0.202700608  -0.502232645 -0.203763297  0.661907217 0.00941940938
2910154500.000000  -0.262855774 -0.405078722  -0.592571551 -0.103066726  -0.58001054 -0.109304781  0.542978373 0.0442432051
2940153000.000000  -0.0825008833 -0.276194624  -0.643117384 0.079452596  -0.631544186 0.0677713987  0.330894952 0.136213064
2970151500.000000  0.179155809 -0.247853343  -0.573215303 0.279557742  -0.565605479 0.265715787  0.13247353 0.330893302
3000150000.000000  0.372545207 -0.313104275  -0.438034946 0.387736635  -0.435759021 0.371680368  0.034127813 0.519946992
3030148500.000000  0.472704525 -0.377508397  -0.329256663 0.43019549  -0.331732756 0.414164431  -0.01255875 0.628201248
3060147000.000000  0.504244476 -0.407558626  -0.255995015 0.461061939  -0.262005602 0.447144428  -0.0439893341 0.659858314
3090145500.000000  0.47855877 -0.393064116  -0.19309735 0.512787646  -0.201218173 0.500902504  -0.0649431309 0.615125807
3120144000.000000  0.399434244 -0.309244932  -0.0934615614 0.592098019  -0.102722641 0.581692485  -0.0794983892 0.473346453
3150142500.000000  0.320081213 -0.111207047  0.0924954371 0.634430965  0.0799528649 0.62679153  -0.14713079 0.22320287
3180141000.000000  0.355714162 0.132750501  0.283052923 0.546578936  0.268823017 0.543852465  -0.325436871 -0.0187948415
3210139500.000000  0.454777779 0.286572495  0.368766919 0.41289068  0.355967127 0.413975801  -0.503410708 -0.154743983
3240138000.000000  0.5190942 0.359841333  0.399163861 0.320387969  0.387896066 0.323033855  -0.597378127 -0.239225352
3270136500.000000  0.531429058 0.382912709  0.432583857 0.264536957  0.421769826 0.267577752  -0.610176548 -0.298948493
3300135000.000000  0.482567042 0.35487417  0.496258219 0.211923064  0.485465941 0.215256884  -0.545677729 -0.323518533
3330133500.000000  0.335863102 0.280844244  0.588610944 0.106101333  0.577515118 0.111422789  -0.377602549 -0.311840072
3360132000.000000  0.0597217736 0.25420928  0.619115273 -0.094826641  0.610057026 -0.0870795735  -0.0951566142 -0.343733189
3390130500.000000  -0.201802882 0.362822357  0.51261546 -0.265524024  0.505987132 -0.257482078  0.163219345 -0.476732988
3420129000.000000  -0.337255341 0.47957274  0.390635106 -0.328276623  0.385399296 -0.320516545  0.31136865 -0.588450451
3450127500.000000  -0.397744923 0.528464581  0.316634324 -0.355653869  0.312073147 -0.347484688  0.402394755 -0.623626554
3480126000.000000  -0.408406024 0.516752811  0.272081375 -0.395971698  0.268817081 -0.386897203  0.454174843 -0.596563983
3510124500.000000  -0.356407265 0.443189553  0.221448156 -0.471009468  0.220076532 -0.46104237  0.461372036 -0.504959975
3540123000.000000  -0.246943034 0.260604249  0.107426915 -0.571711926  0.108664641 -0.561507036  0.438893086 -0.32341365
3570121500.000000  -0.195877754 -0.0629691201  -0.0994000947 -0.592831637  -0.0954366089 -0.583077104  0.471801991 -0.0568415771
3600120000.000000  -0.293320152 -0.349340561  -0.256582772 -0.478133213  -0.25117302 -0.470795271  0.586453513 0.155650048
3630118500.000000  -0.395021618 -0.489895776  -0.306812023 -0.362440167  -0.301853113 -0.357572701  0.668787633 0.267308036
3660117000.000000  -0.43430678 -0.546875588  -0.327234959 -0.297255679  -0.322859195 -0.293446372  0.68530603 0.334503139
3690115500.000000  -0.420607677 -0.550759342  -0.36572465 -0.263047267  -0.361502003 -0.258766142  0.650971895 0.371870313
3720114000.000000  -0.352699456 -0.494105092  -0.446763367 -0.222718686  -0.440393706 -0.217429113  0.552663715 0.370219661
3750112500.000000  -0.178621263 -0.375868348  -0.557129398 -0.106476422  -0.546554299 -0.104187375  0.344340022 0.345380158
3780111000.000000  0.129577436 -0.326373591  -0.56676798 0.110927538  -0.556193434 0.107224892  0.0394788981 0.403435993
3810109500.000000  0.377342378 -0.418393907  -0.440100009 0.254745148  -0.433470975 0.246334469  -0.187858977 0.552417405
3840108000.000000  0.494892847 -0.498437683  -0.332159665 0.29186442  -0.327460581 0.282465819  -0.313370906 0.647090107
3870106500.000000  0.547970834 -0.514789821  -0.278842861 0.308975136  -0.275449297 0.299465602  -0.397413743 0.659278864
3900105000.000000  0.558112937 -0.47858074  -0.254108641 0.350330236  -0.252124649 0.340036682  -0.440986176 0.604774526
3930103500.000000  0.517633072 -0.387073316  -0.216141758 0.437133344  -0.216490286 0.426813482  -0.417266684 0.474617587
3960102000.000000  0.449559082 -0.192342462  -0.0934108413 0.544586849  -0.096773059 0.535464509  -0.33912912 0.212136365
3990100500.000000  0.47014833 0.0826752113  0.11011864 0.544359815  0.104269752 0.535501187  -0.340263369 -0.159219042
4020099000.000000  0.571722653 0.275485412  0.233776478 0.431920446  0.224902638 0.426847728  -0.420902758 -0.438487054
4050097500.000000  0.632351423 0.371760857  0.271729486 0.33929983  0.262407706 0.339080093  -0.446991787 -0.593369471
4080096000.000000  0.631395321 0.419260212  0.296053456 0.292719978  0.289319217 0.295024907  -0.400317857 -0.669435721
4110094500.000000  0.574980509 0.421875471  0.347242874 0.267830968  0.3421698 0.269623421  -0.304755917 -0.673233744
4140093000.000000  0.435507935 0.377070028  0.445638532 0.217528086  0.439154887 0.218576106  -0.157496099 -0.588273988
4170091500.000000  0.167099854 0.358630723  0.537237024 0.065965989  0.528819749 0.0696261131  0.0956267033 -0.446794803
4200090000.000000  -0.109209615 0.472225944  0.491231344 -0.118670981  0.484531847 -0.111319986  0.403784035 -0.385210401
4230088500.000000  -0.259491727 0.597052858  0.384646952 -0.199002849  0.380665491 -0.190739852  0.610814417 -0.382997838
4260087000.000000  -0.340487407 0.645963186  0.318656725 -0.223291609  0.315692235 -0.214832191  0.72181 -0.350828128
4290085500.000000  -0.386788526 0.634092047  0.291063295 -0.248935322  0.288656387 -0.240183135  0.771938365 -0.284187237
4320084000.000000  -0.387208565 0.564590785  0.279732909 -0.305165453  0.277596798 -0.297000941  0.757640311 -0.192081116
4350082500.000000  -0.333107939 0.393384146  0.230732754 -0.412912626  0.228531371 -0.405310952  0.66230465 -0.0590650388
4380081000.000000  -0.330850761 0.0768713432  0.0699675435 -0.492214058  0.068694452 -0.485373178  0.537943262 0.177202649
4410079500.000000  -0.464112679 -0.202508634  -0.0878806769 -0.431397641  -0.087334316 -0.425414071  0.505027158 0.434920656
4440078000.000000  -0.566424313 -0.353948518  -0.14704248 -0.346114679  -0.145590547 -0.342498593  0.492752603 0.600252184
4470076500.000000  -0.586869438 -0.451769416  -0.174122281 -0.300398662  -0.172382149 -0.298393461  0.441694265 0.70089694
4500075000.000000  -0.548987981 -0.509053845  -0.209847099 -0.282178226  -0.208043663 -0.281110615  0.359554341 0.750729648
4530073500.000000  -0.457199294 -0.506713313  -0.281609989 -0.269964264  -0.278775452 -0.268948014  0.250011507 0.733656126
4560072000.000000  -0.262531758 -0.442858202  -0.400531273 -0.202348822  -0.395315927 -0.202893633  0.0755881616 0.629813266
4590070500.000000  0.0570818147 -0.45120086  -0.450752572 -0.022971039  -0.445690863 -0.027113715  -0.221356339 0.524220781
4620069000.000000  0.29186443 -0.568430425  -0.36444615 0.101111019  -0.361309727 0.0962967882  -0.48913889 0.509971939
4650067500.000000  0.413660999 -0.626655943  -0.2913653 0.129620691  -0.288700512 0.125071582  -0.644772589 0.470724929
4680066000.000000  0.494366035 -0.609294741  -0.26557428 0.142281678  -0.263338168 0.137489548  -0.731621149 0.376893648
4710064500.000000  0.541886563 -0.549235547  -0.265429978 0.174971421  -0.263888865 0.169138915  -0.759768271 0.255934374
4740063000.000000  0.537914666 -0.446920424  -0.266410697 0.251332247  -0.266100438 0.244580218  -0.704888495 0.122522575
4770061500.000000  0.499158769 -0.249615552  -0.197852646 0.374274696  -0.199917542 0.36684047  -0.536764337 -0.0669832281
4800060000.000000  0.560539823 0.0212652739  -0.0236641978 0.406222199  -0.0287554405 0.400545456  -0.370273439 -0.377987733
4830058500.000000  0.679371722 0.184722177  0.0738082688 0.322618407  0.0687220111 0.319198021  -0.304071361 -0.631942004
4860057000.000000  0.729265037 0.274928432  0.0927925096 0.263399284  0.0882640204 0.260705962  -0.220975889 -0.764069205
4890055500.000000  0.716831704 0.343397999  0.0987654499 0.246674902  0.0945605431 0.24414058  -0.102418544 -0.81591244
4920054000.000000  0.662314866 0.392823973  0.126227194 0.256621823  0.121568209 0.254096186  0.0266600706 -0.803570175
4950052500.000000  0.556776917 0.406151201  0.201523716 0.267549897  0.195509924 0.265587188  0.143475274 -0.711220778
4980051000.000000  0.345837036 0.41119792  0.324495607 0.202791049  0.31726818 0.203217303  0.28604988 -0.503038063
5010049500.000000  0.0919276297 0.53663367  0.35037018 0.037886656  0.34422644 0.0411412659  0.538681639 -0.289224069
5040048000.000000  -0.0467634576 0.68495554  0.274203816 -0.0478154238  0.270187033 -0.0439387027  0.746681318 -0.179995865
5070046500.000000  -0.138002043 0.748369525  0.22302151 -0.0636826466  0.220231634 -0.0599723662  0.842501631 -0.0784284741
5100045000.000000  -0.221535076 0.741736672  0.210673099 -0.0696597547  0.208161887 -0.0656736928  0.865472129 0.0388831616
5130043500.000000  -0.285986898 0.680049112  0.223819399 -0.0932816145  0.221676585 -0.0885094224  0.830708242 0.155426679
5160042000.000000  -0.312289427 0.551138528  0.242261424 -0.162674329  0.241077963 -0.156092546  0.725805751 0.260287024
5190040500.000000  -0.335791736 0.305701657  0.188638802 -0.278148856  0.189911073 -0.270106197  0.527220943 0.383164121
5220039000.000000  -0.479163768 0.030263925  0.0489083923 -0.302719018  0.0536202212 -0.296318162  0.325018675 0.585832376
5250037500.000000  -0.621192787 -0.122630587  -0.0210901046 -0.244518466  -0.0153037716 -0.240482292  0.207194845 0.746498722
5280036000.000000  -0.666829449 -0.22112365  -0.0343768311 -0.209939814  -0.0288840292 -0.206554782  0.101787686 0.816387586
5310034500.000000  -0.637534502 -0.298083805  -0.0418397259 -0.208879731  -0.0360378525 -0.205381314  -0.00335835081 0.822302322
5340033000.000000  -0.551798748 -0.342408215  -0.0701720318 -0.229688592  -0.0630893567 -0.226025674  -0.0975865013 0.770294994
5370031500.000000  -0.391883061 -0.345650707  -0.149003286 -0.244605228  -0.139340825 -0.242473897  -0.183928365 0.639259825
5400030000.000000  -0.132046277 -0.372920643  -0.248264674 -0.172526802  -0.237661198 -0.174742762  -0.326087681 0.425163667
5430028500.000000  0.0959141434 -0.499096648  -0.245941565 -0.0596179359  -0.238139972 -0.0647887573  -0.540334671 0.25540692
5460027000.000000  0.216704519 -0.596504602  -0.19944865 -0.016679083  -0.194146094 -0.0217015474  -0.688632821 0.155007248
5490025500.000000  0.29425395 -0.623826269  -0.179589616 -0.0128549112  -0.175295994 -0.0172589683  -0.752012753 0.0555078729
5520024000.000000  0.350688533 -0.599285017  -0.188858105 -0.00994872494  -0.184786291 -0.0141618158  -0.753992917 -0.0481845411
5550022500.000000  0.374274636 -0.527637972  -0.218887521 0.0108893655  -0.214869701 0.00659838223  -0.691150212 -0.135317606
5580021000.000000  0.368798543 -0.386926104  -0.246380928 0.083357181  -0.242956181 0.0779788955  -0.537165688 -0.203411419
5610019500.000000  0.405412125 -0.160821099  -0.194010465 0.180055582  -0.192767207 0.173810115  -0.2816144 -0.312932589
5640018000.000000  0.527345515 0.0234185177  -0.103164234 0.188811074  -0.103674616 0.183713393  -0.0535830559 -0.490793994
5670016500.000000  0.618058599 0.121119367  -0.0669664907 0.162025654  -0.0677018547 0.157810227  0.0985677869 -0.614575947
5700015000.000000  0.647913357 0.187384882  -0.0612382681 0.154394065  -0.0620050254 0.150505316  0.21987804 -0.651782651
5730013500.000000  0.630306267 0.235604787  -0.0585286829 0.173560336  -0.0594549877 0.169490182  0.316223 -0.617122009
5760012000.000000  0.56762546 0.258954864  -0.0326768942 0.214449434  -0.0345215584 0.209624643  0.370325875 -0.524428942
5790010500.000000  0.434616049 0.265559661  0.0429296552 0.249314554  0.0394231848 0.24459348  0.374115959 -0.346176992
5820009000.000000  0.240087223 0.320204201  0.135156054 0.208323459  0.130138125 0.205100849  0.401693845 -0.0783546587
5850007500.000000  0.0892343697 0.431977635  0.156893666 0.13682303  0.152237372 0.135296786  0.491625512 0.152885065
5880006000.000000  0.00599960599 0.508566616  0.149077816 0.107172456  0.144819674 0.106353399  0.547589112 0.29657119
5910004500.000000  -0.0526234136 0.532079993  0.158760799 0.104153186  0.154014443 0.103414403  0.544420481 0.383930805
5940003000.000000  -0.0968441531 0.51481927  0.194929615 0.0990404983  0.189201415 0.0990145618  0.495618216 0.433968147
5970001500.000000  -0.119310089 0.457859629  0.251872859 0.0668238212  0.24508619 0.0687961654  0.408296072 0.441133145
6000000000.000000  -0.122699963 0.343497184  0.30207008 -0.0168075182  0.295555166 -0.0119095923  0.259395418 0.408682225
