! 2-port S-parameters written by miniscope-char acquisition
! instrument: Pico Technology Ltd,PicoVNA-106,10080,5.3.4
! transport: scpi
! endpoint: 127.0.0.1:5025
! demo: false
! calibration: software
# HZ S RI R 50
300000.000000  0.00985500737 0.010077975  0.987585158 0.0142729078  0.981337583 0.0034771405  0.0109184471 0.00424408416
30298500.000000  0.00951311087 -0.0541276371  0.945359296 -0.246788571  0.944239848 -0.261381788  0.00687247524 -0.0536296192
60297000.000000  -0.0245584903 -0.110423153  0.849791261 -0.45754627  0.846320192 -0.467393268  -0.0331059319 -0.10383577
90295500.000000  -0.0773430729 -0.137172252  0.710675205 -0.631595263  0.70568947 -0.64368121  -0.0897384964 -0.122034004
120294000.000000  -0.123273672 -0.134873598  0.545478296 -0.767865629  0.536180005 -0.775755128  -0.137571677 -0.107261854
150292500.000000  -0.153164928 -0.106329773  0.354759962 -0.858804341  0.34780151 -0.86562203  -0.16353419 -0.0725190918
180291000.000000  -0.153760284 -0.064645635  0.157381198 -0.912795188  0.149488461 -0.916632643  -0.159418446 -0.0302076442
210289500.000000  -0.120511141 -0.0260834927  -0.0498684144 -0.923774042  -0.0588621292 -0.926446146  -0.120894871 0.00358007486
240288000.000000  -0.056668708 -0.00993023381  -0.259144818 -0.889926456  -0.268847758 -0.890129665  -0.0549250521 0.0132150932
270286500.000000  0.0194674422 -0.0337896282  -0.458255187 -0.801259898  -0.467344378 -0.79909934  0.0220305368 -0.017169364
300285000.000000  0.0778272684 -0.0925361319  -0.62902381 -0.664774567  -0.637302857 -0.660179058  0.0779432641 -0.0851372571
330283500.000000  0.101214924 -0.163518745  -0.749855226 -0.49585022  -0.757468437 -0.491301898  0.0968263622 -0.162295643
360282000.000000  0.089569452 -0.222024273  -0.829451708 -0.316453514  -0.83423292 -0.308173009  0.0754575578 -0.224334542
390280500.000000  0.050226722 -0.246816843  -0.868145514 -0.130153774  -0.8733917 -0.122125939  0.0280739958 -0.246455593
420279000.000000  0.00975369349 -0.225221798  -0.879562306 0.0607349095  -0.881053942 0.0692418932  -0.0274119567 -0.22044755
450277500.000000  -0.0188648875 -0.160144381  -0.845500461 0.255946076  -0.845301785 0.265399904  -0.0800698098 -0.131831538
480276000.000000  0.0333990996 -0.0630046047  -0.773263862 0.44037339  -0.771157428 0.449534616  -0.041721882 -0.0143603531
510274500.000000  0.11124912 0.000949111015  -0.638477704 0.612904631  -0.632055532 0.620795029  0.0325070716 0.0820196418
540273000.000000  0.209772457 0.019773352  -0.472259389 0.734834583  -0.466275515 0.742772848  0.133573698 0.138453452
570271500.000000  0.278147676 0.0122602463  -0.286854006 0.80221105  -0.279795525 0.80645987  0.224234964 0.134954991
600270000.000000  0.303243369 -0.023270606  -0.111304553 0.834832245  -0.102099614 0.838353078  0.272366927 0.088068475
630268500.000000  0.275395626 -0.050407273  0.0659672178 0.842005183  0.0751911825 0.843283657  0.255177643 0.0191482881
660267000.000000  0.203909356 -0.037268789  0.254236085 0.817753948  0.264350587 0.816729387  0.164202453 -0.0391326595
690265500.000000  0.117708947 0.0342980053  0.449990394 0.737109639  0.459215629 0.734735163  0.0172749494 -0.0456536793
720264000.000000  0.06207784 0.153795031  0.613498033 0.593179437  0.621601566 0.587586827  -0.136369111 0.0262117883
750262500.000000  0.0630894936 0.269192417  0.724238272 0.414409954  0.731290778 0.408104192  -0.239801673 0.145152074
780261000.000000  0.0953154523 0.361779351  0.76571856 0.239696346  0.770081437 0.231956832  -0.25117328 0.256276852
810259500.000000  0.13478882 0.37716116  0.772689328 0.0843963191  0.776296895 0.0745313319  -0.206699321 0.332019494
840258000.000000  0.146003479 0.338721991  0.783753688 -0.068268786  0.784734451 -0.0776970026  -0.116258416 0.322303409
870256500.000000  0.105826084 0.260258437  0.770317933 -0.253124713  0.769444852 -0.263079898  -0.0204069927 0.206330285
900255000.000000  -0.0211422666 0.181912428  0.675181665 -0.453779384  0.671694296 -0.463119992  0.00532951188 -0.0109042896
930253500.000000  -0.187480418 0.16018716  0.498961316 -0.594068676  0.492008174 -0.601581555  -0.101731319 -0.219184904
960252000.000000  -0.329434085 0.196070554  0.317315518 -0.642751002  0.310079242 -0.648458612  -0.261581944 -0.328105276
990250500.000000  -0.416582118 0.247654937  0.173032696 -0.644651561  0.166903259 -0.648648262  -0.390787051 -0.339814147
1020249000.000000  -0.451423762 0.282995354  0.0625870045 -0.640973209  0.0559009975 -0.643589606  -0.459789532 -0.276274271
1050247500.000000  -0.43565625 0.281546777  -0.0537823917 -0.651003679  -0.0612102511 -0.652443409  -0.439030224 -0.148688198
1080246000.000000  -0.381350523 0.222703253  -0.22048906 -0.643650176  -0.229791423 -0.641910288  -0.269464116 0.000385855835
1110244500.000000  -0.341888337 0.0797497144  -0.408343543 -0.52953124  -0.415802275 -0.526925781  0.0639000421 0.00914465814
1140243000.000000  -0.374711734 -0.0806789347  -0.481254516 -0.330866668  -0.485805647 -0.32719143  0.323859352 -0.206453101
1170241500.000000  -0.429985378 -0.190204696  -0.451929012 -0.193929684  -0.45542627 -0.19099701  0.372191215 -0.434363366
1200240000.000000  -0.464378014 -0.264188597  -0.415063227 -0.128063315  -0.417663885 -0.124766391  0.313821464 -0.560469174
1230238500.000000  -0.473092936 -0.325037091  -0.409584007 -0.0904005018  -0.411290185 -0.0872307023  0.20677109 -0.586428285
1260237000.000000  -0.471734903 -0.370652375  -0.431574374 -0.0397505144  -0.433014782 -0.0360503514  0.0487518687 -0.491070952
1290235500.000000  -0.449849445 -0.393290034  -0.447406661 0.0556833509  -0.449032139 0.0605230377  -0.0701428367 -0.189860114
1320234000.000000  -0.395409743 -0.397646911  -0.398216404 0.152352167  -0.397703466 0.157549279  0.0900896809 0.190782809
1350232500.000000  -0.324808132 -0.405677958  -0.33601523 0.184282704  -0.332820154 0.188609141  0.375234941 0.310238885
1380231000.000000  -0.249371482 -0.405180254  -0.313710847 0.192678403  -0.310453084 0.196884107  0.527129812 0.272487631
1410229500.000000  -0.167941727 -0.390111946  -0.327527491 0.217229143  -0.324880649 0.221888578  0.550326204 0.191736272
1440228000.000000  -0.0666055003 -0.368451117  -0.356641129 0.294114709  -0.354333679 0.299599012  0.450177422 0.0965819243
1470226500.000000  0.0483920704 -0.376443199  -0.331633547 0.439655387  -0.327360274 0.444406373  0.215295945 0.0676207648
1500225000.000000  0.109639599 -0.427568039  -0.201747984 0.563038515  -0.196911761 0.566893225  -0.0288960913 0.183731718
1530223500.000000  0.0885433468 -0.444576143  -0.0463444964 0.599146935  -0.0412386449 0.602378685  -0.153474516 0.335651915
1560222000.000000  0.0325738799 -0.387871726  0.0829494044 0.594123175  0.0889251176 0.595804512  -0.200933165 0.415191483
1590220500.000000  -0.0125646585 -0.264178659  0.201768471 0.580974395  0.208446808 0.580281358  -0.227010611 0.41556907
1620219000.000000  -0.0101423352 -0.0960298915  0.332667814 0.550141513  0.339406024 0.547594266  -0.251415826 0.348337137
1650217500.000000  0.0729484865 0.0637969094  0.474641319 0.477329735  0.480938617 0.473924633  -0.285480513 0.228712473
1680216000.000000  0.212491703 0.13750691  0.594216352 0.347207711  0.599188245 0.342956959  -0.334493032 0.0832312094
1710214500.000000  0.321462358 0.0896717774  0.658617204 0.182941673  0.662271797 0.176270861  -0.38521581 -0.0573493287
1740213000.000000  0.329505381 -0.0270612445  0.669858008 0.0203474525  0.670833623 0.0135309478  -0.416970066 -0.174362116
1770211500.000000  0.222739368 -0.140447974  0.647111011 -0.127919114  0.645756966 -0.134289344  -0.413013283 -0.273299398
1800210000.000000  0.0349644334 -0.187069136  0.598731429 -0.262817833  0.596907033 -0.269540919  -0.3722634 -0.360914576
1830208500.000000  -0.162852862 -0.136786866  0.524766227 -0.384080411  0.521217956 -0.39090646  -0.303392588 -0.437565975
1860207000.000000  -0.296919204 -0.00161240317  0.427431389 -0.486476448  0.422226273 -0.492616465  -0.217227146 -0.493661348
1890205500.000000  -0.316915227 0.160947422  0.311131996 -0.570005865  0.305057521 -0.574286306  -0.118224058 -0.519537886
1920204000.000000  -0.214464743 0.274415796  0.174555006 -0.634164185  0.168004512 -0.63739253  -0.00728793636 -0.511955374
1950202500.000000  -0.028271382 0.265086645  0.0131493349 -0.666244913  0.0054998508 -0.668043532  0.120616911 -0.472988333
1980201000.000000  0.14141033 0.102590784  -0.160891492 -0.642066943  -0.168983369 -0.642927685  0.266986677 -0.418265557
2010199500.000000  0.189781122 -0.143958128  -0.310270901 -0.561369548  -0.316721695 -0.5594455  0.410037577 -0.368642858
2040198000.000000  0.111245052 -0.353903424  -0.408539534 -0.455881861  -0.412208452 -0.453802346  0.521225633 -0.31830135
2070196500.000000  -0.0248995864 -0.462370181  -0.473475328 -0.35939632  -0.47621632 -0.356701579  0.587931035 -0.256760382
2100195000.000000  -0.158143801 -0.461948375  -0.532132091 -0.2707479  -0.535229951 -0.267986928  0.603946019 -0.179276816
2130193500.000000  -0.24601152 -0.356820621  -0.599790197 -0.168345573  -0.601594994 -0.16422477  0.567449068 -0.0821421726
2160192000.000000  -0.227615283 -0.166887642  -0.659357203 -0.019868872  -0.659526428 -0.0154329273  0.482458476 0.0458432323
2190190500.000000  -0.0481512381 0.0148442948  -0.65383387 0.170674433  -0.65281511 0.175418693  0.377171734 0.215485525
2220189000.000000  0.215535157 0.0564305737  -0.562394054 0.33273832  -0.560907377 0.337550999  0.291009296 0.399024372
2250187500.000000  0.4119389 -0.0302970104  -0.443334127 0.423119131  -0.441698479 0.428541863  0.221823486 0.543657387
2280186000.000000  0.491889924 -0.148272826  -0.344840626 0.471189067  -0.34147538 0.476371375  0.148504706 0.624225966
2310184500.000000  0.472616871 -0.245908397  -0.266969024 0.517944455  -0.262427566 0.522404882  0.0637520817 0.639792323
2340183000.000000  0.364411071 -0.293915434  -0.180873258 0.582842661  -0.175733083 0.585382055  -0.0296619501 0.585819987
2370181500.000000  0.183832999 -0.236181788  -0.047163518 0.651501395  -0.0418494261 0.653484069  -0.142583799 0.459435118
2400180000.000000  0.0260803818 -0.0190137948  0.141702135 0.658941328  0.147767504 0.659990509  -0.303915795 0.286041595
2430178500.000000  0.0222234823 0.257275377  0.305425353 0.566347943  0.31134712 0.565351163  -0.490267099 0.131584735
2460177000.000000  0.131559138 0.432958927  0.384263486 0.445675609  0.388838198 0.443190151  -0.627728273 0.0155466625
2490175500.000000  0.247476301 0.486550545  0.418425248 0.356544965  0.421806165 0.354129738  -0.686265755 -0.0876007436
2520174000.000000  0.326930083 0.4466488  0.458300885 0.293903654  0.46059518 0.291518068  -0.670254748 -0.184380234
2550172500.000000  0.345229782 0.317982921  0.525173743 0.225780811  0.527898856 0.222126132  -0.584095941 -0.271082712
2580171000.000000  0.242758315 0.112608876  0.603414698 0.103209323  0.605827316 0.0981887337  -0.425274115 -0.359262762
2610169500.000000  -0.0302175483 -0.0448627153  0.617177456 -0.0836467334  0.617056354 -0.0886784074  -0.224822158 -0.481596785
2640168000.000000  -0.333811279 -0.0229425934  0.528341521 -0.237531241  0.527830204 -0.242245183  -0.0518725111 -0.622549055
2670166500.000000  -0.508936512 0.0928551582  0.421749613 -0.3088004  0.421401917 -0.312476076  0.0765471828 -0.717470249
2700165000.000000  -0.562347108 0.195448545  0.348833965 -0.344644817  0.347719014 -0.34844201  0.181290064 -0.744196409
2730163500.000000  -0.52494055 0.263077338  0.30058355 -0.390279074  0.298932037 -0.393840724  0.270241422 -0.709051619
2760162000.000000  -0.388370101 0.281744271  0.242518642 -0.469813325  0.239741684 -0.472566393  0.342466809 -0.611846125
2790160500.000000  -0.152243565 0.175911755  0.116599245 -0.565002331  0.113100072 -0.56647382  0.416188665 -0.443166275
2820159000.000000  0.0307088542 -0.130529965  -0.0859835037 -0.571400742  -0.0889317981 -0.573415556  0.541267361 -0.236138062
2850157500.000000  0.00316623178 -0.449141132  -0.229216597 -0.463918815  -0.23319008 -0.464536664  0.689103838 -0.0789070119
2880156000.000000  -0.0999108619 -0.615027881  -0.276639313 -0.360568919  -0.280809575 -0.35862848  0.781269489 0.0339398162
2910154500.000000  -0.173035371 -0.663850682  -0.296000406 -0.302805743  -0.300172175 -0.299466882  0.805191901 0.137986577
2940153000.000000  -0.214404844 -0.63438142  -0.332402461 -0.273519941  -0.335917753 -0.269439555  0.768640245 0.231562633
2970151500.000000  -0.22258979 -0.518380867  -0.411746636 -0.24101348  -0.414742624 -0.235501668  0.664013356 0.303669269
3000150000.000000  -0.127989204 -0.30214359  -0.527361188 -0.137230715  -0.52957378 -0.130110322  0.463952027 0.366539874
3030148500.000000  0.16728127 -0.125263971  -0.558951797 0.0701366574  -0.55743343 0.0778273949  0.197081251 0.493595268
3060147000.000000  0.46719067 -0.158936699  -0.452316328 0.217546523  -0.450418073 0.223336534  -0.0119010252 0.658151457
3090145500.000000  0.610491036 -0.25090552  -0.351761619 0.259185101  -0.350289634 0.26393604  -0.163439687 0.749426318
3120144000.000000  0.652333518 -0.3034561  -0.30178861 0.273173807  -0.299626549 0.278473351  -0.295950297 0.753470931
3150142500.000000  0.628812207 -0.318413802  -0.28328696 0.304377377  -0.280098145 0.310464967  -0.403165495 0.685959845
3180141000.000000  0.528584577 -0.29650106  -0.265540026 0.380244734  -0.260246356 0.385776532  -0.460273043 0.548723375
3210139500.000000  0.340542674 -0.17367644  -0.183392286 0.502949433  -0.175643995 0.506841947  -0.465411049 0.317025725
3240138000.000000  0.205186509 0.130534923  0.0144889364 0.556533139  0.022488594 0.557452187  -0.502600873 -0.0107105803
3270136500.000000  0.267569181 0.418280057  0.170025073 0.464414983  0.176834195 0.463504624  -0.595308344 -0.290140431
3300135000.000000  0.362795131 0.549568811  0.217666052 0.366742565  0.223169003 0.364604367  -0.629160021 -0.473924006
3330133500.000000  0.406805574 0.589054495  0.232377649 0.317949186  0.236076196 0.315430109  -0.581701057 -0.601361653
3360132000.000000  0.409604961 0.566482405  0.260705928 0.301931017  0.263211803 0.299678692  -0.477769039 -0.679152377
3390130500.000000  0.369848295 0.462929538  0.329937411 0.290991172  0.331938684 0.28911347  -0.329642549 -0.695204937
3420129000.000000  0.215545274 0.262066139  0.44935811 0.221282301  0.451306063 0.219205852  -0.120439288 -0.646831664
3450127500.000000  -0.13519372 0.130082559  0.511474225 0.0388132016  0.511904469 0.0356212887  0.161319287 -0.610378023
3480126000.000000  -0.447633552 0.205521344  0.436310234 -0.110910979  0.435403287 -0.11336293  0.404677772 -0.627727738
3510124500.000000  -0.589354128 0.297779996  0.351445099 -0.162200671  0.350308256 -0.163865712  0.565968771 -0.613614787
3540123000.000000  -0.636230579 0.329495348  0.30959527 -0.182522893  0.309251899 -0.184063829  0.677042947 -0.546853054
3570121500.000000  -0.614218162 0.321167184  0.299309275 -0.214499316  0.299266715 -0.216286905  0.7434517 -0.439144249
3600120000.000000  -0.497625107 0.27996842  0.293326316 -0.288400621  0.292337732 -0.290786238  0.751932651 -0.298531051
3630118500.000000  -0.265692801 0.123912884  0.224313938 -0.412877868  0.222165676 -0.415271968  0.706481568 -0.0971424794
3660117000.000000  -0.100753312 -0.237090348  0.0438616293 -0.4677688  0.0418883684 -0.470072  0.682174394 0.172154558
3690115500.000000  -0.14283289 -0.54628088  -0.0895408073 -0.393513594  -0.0923961754 -0.396773459  0.703017563 0.397584255
3720114000.000000  -0.199016455 -0.689778231  -0.132259659 -0.321354116  -0.136778576 -0.323976171  0.683753077 0.554207588
3750112500.000000  -0.205048629 -0.742495343  -0.148404775 -0.290057268  -0.154177169 -0.290990794  0.60624603 0.669933064
3780111000.000000  -0.182857809 -0.725493824  -0.176767268 -0.288930287  -0.183122864 -0.287716473  0.487495623 0.737514441
3810109500.000000  -0.144900321 -0.619411889  -0.249776311 -0.297206439  -0.255722575 -0.294002343  0.333045521 0.737089345
3840108000.000000  -0.018704153 -0.39674576  -0.386496669 -0.243597607  -0.391417987 -0.238550293  0.104713413 0.659986739
3870106500.000000  0.303141405 -0.230727926  -0.455105973 -0.0588960135  -0.457800235 -0.0518007365  -0.220019292 0.607019416
3900105000.000000  0.573650209 -0.261151575  -0.380440122 0.0741182451  -0.37951359 0.0800199294  -0.485139864 0.611000606
3930103500.000000  0.69397495 -0.30014831  -0.310834032 0.111446105  -0.309084906 0.115464374  -0.656065327 0.559313997
3960102000.000000  0.739624063 -0.293057386  -0.283397606 0.123638081  -0.282544049 0.126586521  -0.769474375 0.440143857
3990100500.000000  0.732779446 -0.259102941  -0.288814932 0.146981134  -0.288428828 0.149536674  -0.820806443 0.280251339
4020099000.000000  0.65172156 -0.205131949  -0.308428757 0.210780438  -0.308082385 0.214581596  -0.782777454 0.100785946
4050097500.000000  0.472384752 -0.0654049943  -0.279395806 0.344030667  -0.277813392 0.348141401  -0.630296756 -0.118170592
4080096000.000000  0.351901813 0.247648145  -0.112978566 0.434303678  -0.110710769 0.43814007  -0.448862562 -0.430698205
4110094500.000000  0.406271401 0.501094065  0.0258246691 0.375736295  0.0299890305 0.379551578  -0.339599666 -0.700234255
4140093000.000000  0.450591788 0.615414101  0.0698236437 0.310689974  0.0751825281 0.312665092  -0.214006498 -0.849447535
4170091500.000000  0.440915971 0.665420195  0.0842331209 0.284409829  0.090106686 0.283875368  -0.051911784 -0.911308282
4200090000.000000  0.396558713 0.664427973  0.105583233 0.2891549  0.110456507 0.286759752  0.11811694 -0.897370536
4230088500.000000  0.319002129 0.582229284  0.164487206 0.31193353  0.168375083 0.308699866  0.272059304 -0.804254347
4260087000.000000  0.130083412 0.399036004  0.292543831 0.292715948  0.296606191 0.288673572  0.424541964 -0.612242868
4290085500.000000  -0.236254495 0.302042427  0.385737676 0.143807787  0.388141252 0.137595204  0.640700519 -0.383429227
4320084000.000000  -0.510369809 0.374063287  0.342034595 0.0152977511  0.34135434 0.00999642455  0.830009583 -0.222921172
4350082500.000000  -0.637976708 0.411235957  0.287537633 -0.0288345754  0.286039818 -0.0327162186  0.921603797 -0.0763470539
4380081000.000000  -0.696522621 0.383402914  0.265490953 -0.0445933574  0.264265957 -0.0477710033  0.939644591 0.0780260584
4410079500.000000  -0.695464785 0.320092633  0.272631032 -0.0645820737  0.271535867 -0.0679597214  0.900892208 0.225116968
4440078000.000000  -0.602583154 0.233159703  0.298815116 -0.119024456  0.297451444 -0.123376571  0.801693992 0.352518302
4470076500.000000  -0.391512858 0.0494462229  0.289012433 -0.23931533  0.28588359 -0.243956891  0.624708203 0.478164915
4500075000.000000  -0.243230173 -0.308508328  0.160231106 -0.331648265  0.15566262 -0.334907988  0.421728437 0.657031594
4530073500.000000  -0.261457883 -0.586210719  0.0422959921 -0.303459709  0.0375852943 -0.305401961  0.271965561 0.819681663
4560072000.000000  -0.266495365 -0.715847961  -0.00313650612 -0.261079079  -0.00739438359 -0.261652691  0.128108248 0.909330172
4590070500.000000  -0.224348532 -0.769721997  -0.0201351074 -0.245171661  -0.0239356938 -0.244708087  -0.0313103345 0.935220231
4620069000.000000  -0.159069524 -0.765090495  -0.0385111089 -0.256380068  -0.0419826169 -0.255403734  -0.190363584 0.900025486
4650067500.000000  -0.0840049388 -0.676148916  -0.0884899185 -0.289325322  -0.0919917128 -0.287914804  -0.330145956 0.794166045
4680066000.000000  0.0684599644 -0.473414224  -0.208272687 -0.290299282  -0.212189892 -0.287407388  -0.46614156 0.591448478
4710064500.000000  0.380642768 -0.326760261  -0.304279038 -0.168234331  -0.306248228 -0.163836705  -0.662784343 0.349947119
4740063000.000000  0.619593557 -0.332159177  -0.280511523 -0.0575330702  -0.281114176 -0.0539476912  -0.831988802 0.161199699
4770061500.000000  0.732393457 -0.327862108  -0.243876099 -0.0168494087  -0.244296077 -0.0139071983  -0.908013167 -0.0283383625
4800060000.000000  0.7827574 -0.284657369  -0.232407843 -0.00283369692  -0.232563975 0.000178062653  -0.903353004 -0.230253539
4830058500.000000  0.783993057 -0.220781665  -0.247186589 0.0110877759  -0.24700336 0.0145039226  -0.822936258 -0.418287712
4860057000.000000  0.714640345 -0.142284846  -0.28652231 0.0521267239  -0.285508818 0.055806962  -0.663369915 -0.558593083
4890055500.000000  0.551236646 0.00900808785  -0.308667293 0.163859846  -0.306330839 0.167605114  -0.398909943 -0.642329743
4920054000.000000  0.437673926 0.306254767  -0.206948232 0.278302952  -0.203374171 0.280548435  -0.0594167775 -0.748921408
4950052500.000000  0.461457202 0.536963254  -0.0907141681 0.268787545  -0.0874933134 0.269539347  0.208293539 -0.841800148
4980051000.000000  0.46669893 0.651037805  -0.0438556233 0.23225141  -0.041333224 0.232603675  0.418041764 -0.836073872
5010049500.000000  0.427444651 0.710057128  -0.0281871822 0.216818193  -0.0258863763 0.217019992  0.593181005 -0.750917607
5040048000.000000  0.361570187 0.724887935  -0.0165556258 0.22629189  -0.0141767542 0.226782002  0.721980111 -0.612485497
5070046500.000000  0.270400246 0.669959883  0.0161948312 0.259960714  0.018902063 0.260393992  0.787101346 -0.435502393
5100045000.000000  0.0944182498 0.53101818  0.107837191 0.281165763  0.110739914 0.280736891  0.793595735 -0.205950729
5130043500.000000  -0.196288199 0.449256448  0.199875048 0.211326669  0.202663393 0.209865183  0.808920925 0.0627815823
5160042000.000000  -0.418641935 0.45516621  0.210099754 0.131815218  0.212302369 0.130044698  0.821365166 0.285817134
5190040500.000000  -0.555543717 0.433902618  0.200810758 0.0919084829  0.20261835 0.090005087  0.781800323 0.466849368
5220039000.000000  -0.641089212 0.376843823  0.199985865 0.0724866929  0.20170401 0.0702635737  0.693602367 0.615743759
5250037500.000000  -0.672877976 0.298767239  0.216105526 0.056780102  0.217402076 0.0541770818  0.567560609 0.727784102
5280036000.000000  -0.6204342 0.198427412  0.250356489 0.0233307917  0.251188431 0.020313617  0.409708908 0.790326377
5310034500.000000  -0.477515588 0.00897694294  0.268379797 -0.0575355245  0.268512154 -0.0607209658  0.20888529 0.808736091
5340033000.000000  -0.387313915 -0.276349382  0.217206491 -0.130073854  0.216475576 -0.132865201  -0.0205316658 0.822677156
5370031500.000000  -0.355162589 -0.487105633  0.164430266 -0.147843577  0.163344007 -0.150236083  -0.22875753 0.815905963
5400030000.000000  -0.29507103 -0.619235615  0.135458362 -0.155138846  0.134086371 -0.157304042  -0.418482018 0.764373061
5430028500.000000  -0.210570612 -0.694987824  0.119158646 -0.167571784  0.117523293 -0.169782289  -0.584654848 0.665987661
5460027000.000000  -0.117700917 -0.716669963  0.104103644 -0.194310842  0.101994054 -0.19656611  -0.710384795 0.525641598
5490025500.000000  -0.0220305777 -0.658806786  0.0719594131 -0.24149658  0.0690113672 -0.243696715  -0.772864249 0.343966673
5520024000.000000  0.128920703 -0.501576962  -0.0183449327 -0.281835828  -0.022500989 -0.282972326  -0.760750672 0.101027618
5550022500.000000  0.3914868 -0.373453772  -0.12384785 -0.229313546  -0.127985351 -0.228544839  -0.736635836 -0.20156226
5580021000.000000  0.593102601 -0.347662184  -0.14466721 -0.14982445  -0.147427189 -0.148160719  -0.702620888 -0.457117734
5610019500.000000  0.696809398 -0.312197704  -0.134368898 -0.112611947  -0.13639383 -0.110799349  -0.603140972 -0.646788918
5640018000.000000  0.744442117 -0.251039886  -0.132127156 -0.100958536  -0.133981052 -0.0992570759  -0.446071676 -0.779102737
5670016500.000000  0.746683805 -0.177113439  -0.148667499 -0.0996747145  -0.150587504 -0.0978489987  -0.256399406 -0.844188842
5700015000.000000  0.691202625 -0.0973196325  -0.192177998 -0.0876515367  -0.194314982 -0.0850312503  -0.0587708105 -0.827333311
5730013500.000000  0.565860433 0.0339802724  -0.247185713 -0.0242035939  -0.248411397 -0.0206133707  0.155852813 -0.717742443
5760012000.000000  0.468138671 0.253637892  -0.231452446 0.0751424382  -0.231235405 0.0787806764  0.410885792 -0.567844245
5790010500.000000  0.446245874 0.441315235  -0.171815922 0.117356546  -0.170635768 0.120421708  0.632683482 -0.435656063
5820009000.000000  0.422911143 0.559999444  -0.134285251 0.123945422  -0.132772106 0.12620259  0.779565743 -0.288186921
5850007500.000000  0.37909674 0.632181765  -0.120002362 0.128004321  -0.118322081 0.129967216  0.856355852 -0.120961608
5880006000.000000  0.324141682 0.664543917  -0.114438036 0.145760874  -0.112627725 0.147489408  0.873708785 0.0492599725
5910004500.000000  0.254568061 0.641371539  -0.10431195 0.18425537  -0.102263806 0.185681079  0.827722167 0.203897698
5940003000.000000  0.127188779 0.554194522  -0.0562206659 0.235666464  -0.0537225687 0.236757135  0.714171011 0.34840577
5970001500.000000  -0.0893976967 0.483732337  0.0277328148 0.239292858  0.030279379 0.239517886  0.559220087 0.512450724
6000000000.000000  -0.285035133 0.472396027  0.0763952157 0.200344991  0.0784748838 0.200476823  0.411035593 0.663158482
