! 2-port S-parameters written by miniscope-char acquisition
! instrument: Pico Technology Ltd,PicoVNA-106,10080,5.3.4
! transport: scpi
! endpoint: 127.0.0.1:5025
! demo: false
! calibration: user
! calibration_file: June 2026 Short cable calibration.calx
# HZ S RI R 50
300000.000000  0.0880793839 -0.0192519181  0.907054824 -0.0423611236  0.955147365 -0.0213652792  0.0843455253 -0.0203013849
30298500.000000  0.0302308019 -0.0645787032  -0.422631417 -0.731348743  -0.39513449 -0.726260556  0.033549538 -0.0600847848
60297000.000000  0.0764216424 -0.0116743217  -0.461323357 0.626370819  -0.462741116 0.607300686  0.0668001886 0.00977188878
90295500.000000  0.0249924348 0.0440000917  0.714521464 0.162777873  0.697504648 0.170665019  -0.00127214718 0.0533567715
120294000.000000  -0.0129706026 -0.0231604197  -0.109255366 -0.690112361  -0.0959974135 -0.678554803  -0.016623583 0.0334938416
150292500.000000  0.0295136465 0.0216896777  -0.572241187 0.342022819  -0.562475744 0.331344751  0.0142198143 0.046914686
180291000.000000  -0.02860475 0.0543065343  0.505335956 0.387657686  0.492198282 0.38351751  -0.0467952319 0.0652226664
210289500.000000  -0.0381708544 -0.000267355651  0.166492087 -0.592153315  0.167024674 -0.578481215  -0.0538061081 0.00781373333
240288000.000000  0.00326104086 0.00866538466  -0.594743509 0.0556389687  -0.583194579 0.0499302466  -0.0544691103 0.0177997836
270286500.000000  -0.0552127538 0.0252065294  0.258321083 0.517571209  0.249065916 0.508477933  -0.0959642185 0.0132673897
300285000.000000  -0.0646389402 -0.0572907668  0.371699389 -0.410289246  0.366602966 -0.399274899  -0.122008069 -0.0299169136
330283500.000000  -0.0310019522 -0.00732325417  -0.505401328 -0.192775201  -0.49360104 -0.192243646  -0.0789355853 -0.00868764238
360282000.000000  -0.061291461 -0.0181904418  -0.00227080589 0.520468478  -0.00544313079 0.508942405  -0.0835748587 -0.0450038179
390280500.000000  -0.0289296002 -0.0862811915  0.477611597 -0.182487395  0.469475481 -0.17553639  -0.0733306894 -0.0941634159
420279000.000000  0.0119788306 -0.0684075518  -0.335480993 -0.371555273  -0.326503586 -0.366560352  -0.0188991025 -0.0937091497
450277500.000000  -0.0198601908 -0.0716391287  -0.228171289 0.434842789  -0.226776197 0.425111907  -0.032512594 -0.0988310158
480276000.000000  0.0261761563 -0.126466266  0.467804196 0.0562306964  0.458989135 0.0586733512  -0.00356633592 -0.151570517
510274500.000000  0.0586273393 -0.0640097255  -0.112304471 -0.445165809  -0.107201546 -0.437854368  0.0350180115 -0.100334134
540273000.000000  0.059036449 -0.0857875828  -0.371849698 0.259272876  -0.368038338 0.25194616  0.0103416924 -0.0776800558
570271500.000000  0.0893426448 -0.103979675  0.365742793 0.246655593  0.357394021 0.245420161  0.0748782578 -0.0909868596
600270000.000000  0.112156672 -0.0459371932  0.098895195 -0.421825928  0.100220787 -0.413742128  0.0942620253 -0.0290012363
630268500.000000  0.094401751 -0.0368490696  -0.422932993 0.0498059821  -0.415907789 0.0456915399  0.0631684023 -0.0236885393
660267000.000000  0.125843723 -0.0261209237  0.186920648 0.370106282  0.180787916 0.364644251  0.0994478251 -0.0119625574
690265500.000000  0.131319768 0.0346990752  0.273470681 -0.300155853  0.270965741 -0.292065403  0.0930484179 0.0485669351
720264000.000000  0.115995201 0.0388127073  -0.370980239 -0.148526803  -0.362631629 -0.148851445  0.0391319869 0.0300933012
750262500.000000  0.12162396 0.0536459289  -0.00674564778 0.391246409  -0.0102288301 0.384037654  0.0531257395 0.0491367335
780261000.000000  0.108339707 0.0955408422  0.361305936 -0.129671174  0.35595079 -0.123396967  -0.00967586882 0.0975307442
810259500.000000  0.0546654632 0.107745154  -0.243165308 -0.288652291  -0.235826862 -0.285838033  -0.0485905023 0.0777714897
840258000.000000  0.0464316971 0.107840707  -0.186277897 0.320942414  -0.186549011 0.313142086  -0.047560357 0.0842946927
870256500.000000  0.0122356043 0.142776777  0.357002525 0.0599780179  0.349820923 0.0632724208  -0.11025411 0.0918505413
900255000.000000  -0.0618923044 0.132828136  -0.0691709719 -0.347925184  -0.0636438841 -0.342504737  -0.148939367 0.0473583573
930253500.000000  -0.0670323167 0.119410097  -0.298739988 0.178895164  -0.295382584 0.172462161  -0.13070317 0.0300737143
960252000.000000  -0.109371557 0.132526414  0.262600032 0.21411183  0.256097837 0.213146806  -0.176967789 -0.000526102672
990250500.000000  -0.164193299 0.0794277246  0.105471475 -0.315579537  0.106117837 -0.30936252  -0.17863787 -0.0839146939
1020249000.000000  -0.16291864 0.0274141622  -0.328942945 0.0088451334  -0.322805052 0.00677296402  -0.151121741 -0.113215062
1050247500.000000  -0.207434353 0.0298434918  0.114329046 0.298097561  0.110387017 0.292721323  -0.172610166 -0.138478773
1080246000.000000  -0.228593954 -0.0457320139  0.232563133 -0.206775535  0.22831561 -0.20140511  -0.123977194 -0.206336581
1110244500.000000  -0.184838769 -0.0770768868  -0.272830063 -0.145556748  -0.266349537 -0.143913942  -0.0622544297 -0.194192858
1140243000.000000  -0.191943276 -0.100818867  -0.0439761184 0.298715819  -0.0450482824 0.291820954  -0.047144062 -0.224704002
1170241500.000000  -0.167761895 -0.18060949  0.285652894 -0.0626839928  0.27996752 -0.0591021318  0.026537896 -0.258332246
1200240000.000000  -0.101607326 -0.196665706  -0.159245075 -0.243207867  -0.153167274 -0.23920002  0.0774672939 -0.211375177
1230238500.000000  -0.0911959599 -0.216310256  -0.172189247 0.23018277  -0.171153218 0.224171561  0.0990346138 -0.210709352
1260237000.000000  -0.035849518 -0.273777909  0.267923126 0.0784994364  0.26246298 0.0790473008  0.171463709 -0.202564424
1290235500.000000  0.0327089449 -0.25395255  -0.0203986345 -0.275162686  -0.0192734068 -0.270663962  0.196084157 -0.129289258
1320234000.000000  0.051081761 -0.252861844  -0.248117579 0.111570112  -0.244062905 0.109039529  0.197539369 -0.11619436
1350232500.000000  0.132336951 -0.259157318  0.187540191 0.187726021  0.18421075 0.184908432  0.24225497 -0.0672914947
1380231000.000000  0.19334573 -0.209029396  0.106148795 -0.239170892  0.104658798 -0.235208431  0.218593974 0.0243906686
1410229500.000000  0.223415703 -0.186249979  -0.257219747 -0.017175724  -0.252796784 -0.016992589  0.196512027 0.0513327927
1440228000.000000  0.287193411 -0.165146613  0.0690828923 0.241291963  0.0674379221 0.23723868  0.215578542 0.108723706
1470226500.000000  0.309147612 -0.0966952945  0.200646702 -0.147238002  0.197496401 -0.144280029  0.129180991 0.170202374
1500225000.000000  0.297673367 -0.042389987  -0.205259768 -0.139291041  -0.201434937 -0.137795445  0.0864562587 0.168970207
1530223500.000000  0.320155833 0.022448908  -0.060080272 0.235977867  -0.0601788059 0.232126698  0.0439935444 0.204259327
1560222000.000000  0.309406346 0.10452763  0.239077423 -0.0257054042  0.235440721 -0.0245925756  -0.0720642431 0.204372478
1590220500.000000  0.260834916 0.158690304  -0.104481863 -0.214351333  -0.10240059 -0.211437182  -0.12879506 0.163508849
1620219000.000000  0.233912335 0.201515351  -0.163791382 0.165638454  -0.161496753 0.163181675  -0.180015359 0.162234821
1650217500.000000  0.170872378 0.271740641  0.207745042 0.0933378056  0.204748333 0.0922733808  -0.254282984 0.0990677673
1680216000.000000  0.0936657222 0.283990035  0.0167256714 -0.225840285  0.0164975336 -0.22228858  -0.257655324 0.0120967245
1710214500.000000  0.0421553426 0.288293617  -0.215457154 0.0582477659  -0.21240318 0.0574318714  -0.275629296 -0.0368371845
1740213000.000000  -0.0452703377 0.305568123  0.125596318 0.177521376  0.123652716 0.174911965  -0.290869542 -0.128470509
1770211500.000000  -0.138430789 0.257444961  0.120912664 -0.17627028  0.119470451 -0.173574947  -0.251313159 -0.199300115
1800210000.000000  -0.184517944 0.232857354  -0.202370788 -0.0546728555  -0.199530286 -0.0542845639  -0.21278028 -0.229016101
1830208500.000000  -0.259883112 0.202856405  0.0172116347 0.201896022  0.0166012617 0.199282443  -0.174064172 -0.304071635
1860207000.000000  -0.306694582 0.112800761  0.18078726 -0.0861241645  0.178289341 -0.0847762757  -0.0827665646 -0.333452939
1890205500.000000  -0.327438826 0.0506267045  -0.140188345 -0.137437915  -0.13846571 -0.13555955  -0.0139224363 -0.335889597
1920204000.000000  -0.37001203 -0.00773463065  -0.0795726611 0.172324722  -0.0785548857 0.169706564  0.0545865473 -0.38039129
1950202500.000000  -0.360389115 -0.117258444  0.186337459 0.0142877093  0.183762441 0.0142367487  0.153380033 -0.362305589
1980201000.000000  -0.325181433 -0.179552059  -0.0477664957 -0.178051397  -0.04711567 -0.175910224  0.207462575 -0.323739201
2010199500.000000  -0.314639078 -0.251567985  -0.147727931 0.100560975  -0.145998764 0.0996534582  0.275806435 -0.310795812
2040198000.000000  -0.236892676 -0.333762588  0.144304382 0.101489672  0.142878414 0.0994791554  0.348528969 -0.228134519
2070196500.000000  -0.159091176 -0.365319339  0.0459868236 -0.169683544  0.0441623235 -0.1674348  0.366637758 -0.145930476
2100195000.000000  -0.0959792141 -0.411288585  -0.171558227 0.0141487239  -0.168931209 0.0151424865  0.399537724 -0.0785666091
2130193500.000000  0.0141816733 -0.436390702  0.0733788714 0.153096844  0.0733788009 0.150223976  0.408901471 0.0382684124
2160192000.000000  0.109679343 -0.410950883  0.117918386 -0.121704318  0.115243034 -0.120831066  0.362335515 0.123698427
2190190500.000000  0.189018027 -0.398142191  -0.152037117 -0.0685800026  -0.150319623 -0.0665432824  0.330596725 0.18466341
2220189000.000000  0.299289536 -0.352624099  -0.0102354114 0.164075377  -0.00900086771 0.161549858  0.25984207 0.266912054
2250187500.000000  0.36410506 -0.284339033  0.156136426 -0.0466016323  0.153356014 -0.0465416709  0.139699416 0.300880739
2280186000.000000  0.403600439 -0.221209483  -0.0943487038 -0.129081367  -0.092942703 -0.126435292  0.0676576662 0.317911829
2310184500.000000  0.450576593 -0.132832107  -0.0860841666 0.130905959  -0.0843094642 0.128635417  -0.040781935 0.334486254
2340183000.000000  0.458327598 -0.0241927865  0.152466592 0.0351834714  0.149575261 0.0343397677  -0.149276522 0.27982518
2370181500.000000  0.451008197 0.0619157188  -0.0167300406 -0.153924272  -0.0169270788 -0.150898963  -0.207470143 0.230388619
2400180000.000000  0.447031925 0.160923776  -0.136187334 0.0655669533  -0.133316133 0.0648084926  -0.282181239 0.175868741
2430178500.000000  0.397819931 0.250930955  0.107218388 0.105679424  0.105208922 0.103223773  -0.328568093 0.05684054
2460177000.000000  0.328608212 0.30730488  0.0659461707 -0.134554194  0.0645348469 -0.131644489  -0.330710127 -0.0230214919
2490175500.000000  0.259081701 0.369457361  -0.144346875 -0.0172657867  -0.141134255 -0.017320976  -0.344581371 -0.114474246
2520174000.000000  0.152595914 0.417893068  0.0346433305 0.138826575  0.0331463206 0.135818499  -0.307920256 -0.228775885
2550172500.000000  0.0400960688 0.427720536  0.118904376 -0.0797549379  0.116549235 -0.0773697054  -0.249984569 -0.295556959
2580171000.000000  -0.0630732017 0.447718087  -0.111422233 -0.0830181486  -0.10843115 -0.0819202927  -0.19069648 -0.364356228
2610169500.000000  -0.177540898 0.434706798  -0.0374795137 0.129021915  -0.0376520599 0.126025219  -0.0891668105 -0.444320524
2640168000.000000  -0.272634311 0.360005041  0.134395055 -0.00842956337  0.131734004 -0.00733090435  0.0119638358 -0.463110342
2670166500.000000  -0.355841865 0.288400431  -0.0497950358 -0.121525173  -0.0479818509 -0.119530408  0.107054364 -0.477463005
2700165000.000000  -0.449487011 0.188062585  -0.0921245387 0.0836781774  -0.0906891043 0.0813592795  0.221561895 -0.467660226
2730163500.000000  -0.483946432 0.0635785431  0.109676101 0.0559407316  0.107191379 0.0551746599  0.317638037 -0.393133407
2760162000.000000  -0.500393441 -0.0471953058  0.0159698955 -0.119967188  0.0161006845 -0.11743724  0.396315987 -0.321033874
2790160500.000000  -0.501919125 -0.173273272  -0.112996567 0.0242618908  -0.110501347 0.0235804203  0.485074238 -0.233039257
2820159000.000000  -0.443821391 -0.29840408  0.0617515479 0.0954314099  0.0604138853 0.0935299077  0.521746955 -0.112144156
2850157500.000000  -0.378110678 -0.386791644  0.0700558728 -0.0880288807  0.0688194773 -0.0861226066  0.526242056 -0.0119720416
2880156000.000000  -0.300644104 -0.478842774  -0.101005432 -0.0359966113  -0.098900475 -0.0355938336  0.527130728 0.100102781
2910154500.000000  -0.177414567 -0.525177448  0.0036562538 0.107345764  0.00293208109 0.105469334  0.464863356 0.214506648
2940153000.000000  -0.0595145609 -0.542480115  0.101824614 -0.0407420818  0.100354567 -0.0389224536  0.395117771 0.291130503
2970151500.000000  0.0622314271 -0.569571537  -0.0685162146 -0.0798921488  -0.0661068803 -0.0794221445  0.317040061 0.362804412
3000150000.000000  0.180438651 -0.556410718  -0.0456328057 0.090132079  -0.0467115968 0.0875790379  0.190885878 0.425906534
3030148500.000000  0.283157085 -0.504567819  0.104924621 0.0100852388  0.102718337 0.0124261166  0.0888188288 0.443069281
3060147000.000000  0.389422891 -0.453697683  -0.0203176933 -0.102953047  -0.0174263349 -0.101841539  -0.0114021334 0.453535388
3090145500.000000  0.481872497 -0.368232139  -0.083764594 0.0496652899  -0.0837971385 0.0469737044  -0.144629594 0.423105681
3120144000.000000  0.540143722 -0.264336409  0.0792743391 0.057138573  0.0770062759 0.0580810659  -0.24518706 0.350185406
3150142500.000000  0.591161398 -0.163309694  0.0308318755 -0.0972815492  0.0323943903 -0.0955048709  -0.337662394 0.276895795
3180141000.000000  0.622026199 -0.0459172417  -0.0962102396 -0.00268203311  -0.0949798292 -0.00454990938  -0.429786088 0.158640095
3210139500.000000  0.612681865 0.0734079207  0.0313497824 0.0841242775  0.0292501892 0.0837725113  -0.462677499 0.0279204771
3240138000.000000  0.587828163 0.182072379  0.0704687101 -0.0626097348  0.0708541945 -0.0603270809  -0.477035376 -0.0881183561
3270136500.000000  0.534284178 0.303196545  -0.0818579965 -0.0526223625  -0.0795987658 -0.0535766542  -0.446803776 -0.234961127
3300135000.000000  0.438312732 0.399809688  -0.0238140497 0.0889627681  -0.0250334888 0.0872377552  -0.352507368 -0.352021922
3330133500.000000  0.325432023 0.481074387  0.0894441102 -0.0133093508  0.0882665111 -0.0119374204  -0.246777361 -0.448527675
3360132000.000000  0.202146497 0.555048038  -0.0422671181 -0.0830925071  -0.041054709 -0.082117632  -0.123288092 -0.531999752
3390130500.000000  0.0574797254 0.580214246  -0.0656095368 0.0616808363  -0.0647961004 0.0605482664  0.0278957666 -0.550965194
3420129000.000000  -0.0780721394 0.568856574  0.0765342682 0.0369619342  0.0754102115 0.0363197528  0.163499298 -0.534360845
3450127500.000000  -0.215927506 0.540391843  0.00632376262 -0.0854182834  0.00606165562 -0.0839656698  0.298959088 -0.500681214
3480126000.000000  -0.346720316 0.463770884  -0.0836723289 0.0210613021  -0.0822298234 0.0208746546  0.41853334 -0.414503211
3510124500.000000  -0.44407832 0.36103824  0.045872435 0.0682467202  0.0451391026 0.0671624711  0.501030128 -0.312436934
3540123000.000000  -0.528061503 0.24357064  0.0454133675 -0.0659794806  0.0447177024 -0.0649429466  0.572809061 -0.207770986
3570121500.000000  -0.583705318 0.0929439714  -0.0763913958 -0.0207299635  -0.0753837017 -0.0203748991  0.611729431 -0.0824187558
3600120000.000000  -0.587998584 -0.050518051  0.00415813037 0.0765977165  0.00425042734 0.0757028658  0.605031864 0.0314250879
3630118500.000000  -0.576053242 -0.186101766  0.0685855403 -0.0289946273  0.0677843308 -0.0289643319  0.587864368 0.135918844
3660117000.000000  -0.518301106 -0.322931836  -0.0514550409 -0.054938287  -0.0512628515 -0.054130098  0.535264294 0.256694348
3690115500.000000  -0.423764562 -0.437299589  -0.0344567785 0.067007094  -0.0335652528 0.0663829214  0.460348773 0.354987402
3720114000.000000  -0.32043629 -0.541715233  0.0733961024 0.00811896709  0.0722549105 0.00753013526  0.374844296 0.442665202
3750112500.000000  -0.191880085 -0.622797685  -0.0178777556 -0.0707928305  -0.0177109369 -0.069341506  0.259099226 0.527833576
3780111000.000000  -0.0468781127 -0.649380035  -0.0606618986 0.0397812699  -0.0593439536 0.0388839236  0.125473597 0.563523016
3810109500.000000  0.0952553214 -0.651940164  0.0562308163 0.0423266993  0.0546008794 0.0416278484  -0.00386360539 0.574379191
3840108000.000000  0.242540856 -0.633966  0.0193341891 -0.0658406024  0.0194894423 -0.0639925945  -0.14946963 0.55406716
3870106500.000000  0.37031406 -0.574943119  -0.0689626385 0.00392342112  -0.067342433 0.00309784846  -0.29348049 0.472245188
3900105000.000000  0.480749712 -0.490456817  0.0261299753 0.063225576  0.0247987238 0.0620873953  -0.413139596 0.372083268
3930103500.000000  0.585481886 -0.387285892  0.0490695654 -0.0451466245  0.0486002351 -0.0436560787  -0.517023889 0.237963544
3960102000.000000  0.662727829 -0.260683952  -0.0584583725 -0.0302722757  -0.057009669 -0.0304077954  -0.571632967 0.0645104851
3990100500.000000  0.702375441 -0.130906884  -0.0115001409 0.0650752293  -0.0121214131 0.0639564829  -0.565302609 -0.0976227186
4020099000.000000  0.717467265 0.00832114249  0.0641358409 -0.00893138519  0.0634044894 -0.00798855409  -0.517100789 -0.265362459
4050097500.000000  0.689596818 0.151585472  -0.0298122447 -0.056841361  -0.0287435538 -0.0566793782  -0.398785265 -0.418111485
4080096000.000000  0.628749261 0.28517343  -0.0436656542 0.0476037642  -0.043908655 0.0467955334  -0.258177673 -0.519044396
4110094500.000000  0.554845399 0.413583455  0.0578603192 0.0246256428  0.0574428215 0.024817699  -0.0977570053 -0.583772222
4140093000.000000  0.457056085 0.522044345  0.00305998161 -0.0600848431  0.00313172355 -0.0596671622  0.085637676 -0.608715446
4170091500.000000  0.330006412 0.594732011  -0.0574350559 0.0170696562  -0.0567725885 0.0167979689  0.24091584 -0.577246816
4200090000.000000  0.191356114 0.648147975  0.0339098607 0.0479673512  0.0330961524 0.0474707197  0.378279567 -0.516164845
4230088500.000000  0.0365711345 0.672568383  0.0325900462 -0.0463533968  0.0324259657 -0.0452834908  0.500879443 -0.42007699
4260087000.000000  -0.113110622 0.647610853  -0.0549299607 -0.0148952001  -0.0539272112 -0.0151717511  0.583176926 -0.294675111
4290085500.000000  -0.259416305 0.59792279  0.00444720987 0.0563444734  0.00391296162 0.0555511671  0.649908405 -0.159389349
4320084000.000000  -0.403090118 0.520830874  0.049669798 -0.0222791143  0.0492510953 -0.0215939986  0.693600781 -0.0106121515
4350082500.000000  -0.521061457 0.401758467  -0.0371646173 -0.0387498105  -0.0365010202 -0.0385388602  0.69079954 0.136273935
4380081000.000000  -0.60897512 0.267009688  -0.0244646325 0.0465688978  -0.0244809436 0.0458712978  0.656856832 0.271718646
4410079500.000000  -0.666437041 0.104996433  0.0503708714 0.00686414939  0.0498615148 0.00712334834  0.594021 0.409906816
4440078000.000000  -0.670442039 -0.0685246764  -0.0109335984 -0.0494287541  -0.0105864419 -0.0492035078  0.495815543 0.529912693
4470076500.000000  -0.629966378 -0.230198422  -0.043225693 0.0259909999  -0.0433201979 0.0255691683  0.380305408 0.623034863
4500075000.000000  -0.555056295 -0.387286661  0.0379701135 0.0310630477  0.0376976137 0.0313013523  0.241429586 0.696897962
4530073500.000000  -0.43517072 -0.517328592  0.0155832558 -0.0467863753  0.015885554 -0.046525075  0.0770667876 0.730439884
4560072000.000000  -0.296357893 -0.613030783  -0.0492073054 0.000752264128  -0.0489696064 0.000355428183  -0.0924383344 0.726008572
4590070500.000000  -0.144204167 -0.680338809  0.0161873124 0.0446997687  0.0157026885 0.0444884621  -0.263669741 0.684736304
4620069000.000000  0.0246992322 -0.703434525  0.0356994375 -0.0305892932  0.0357231462 -0.0299551798  -0.424564966 0.58477959
4650067500.000000  0.181989335 -0.684589294  -0.0407309785 -0.0238470328  -0.0400374174 -0.0240805333  -0.551379478 0.441073905
4680066000.000000  0.327141462 -0.629587895  -0.0090134442 0.0451707837  -0.00947173893 0.0445966941  -0.649879379 0.276561863
4710064500.000000  0.464220657 -0.540868604  0.0446576771 -0.00723934761  0.0443178569 -0.0065530646  -0.69815205 0.0880042104
4740063000.000000  0.570788537 -0.434458315  -0.0207345596 -0.0396785315  -0.0200734949 -0.0395916033  -0.68870406 -0.103734502
4770061500.000000  0.648381466 -0.320278369  -0.0309137264 0.0306214897  -0.0310266415 0.0299865981  -0.636564193 -0.276063313
4800060000.000000  0.702237892 -0.18097991  0.0391934191 0.0189363875  0.0385594345 0.0192208564  -0.524949758 -0.430019471
4830058500.000000  0.724123132 -0.0381209529  0.00497879256 -0.0429796647  0.00540809534 -0.0425517336  -0.368945497 -0.546240158
4860057000.000000  0.716754035 0.104589911  -0.0410510543 0.00990870549  -0.0406921459 0.00934584965  -0.199236165 -0.624282827
4890055500.000000  0.681310389 0.251232797  0.02423923 0.0338585351  0.0236893209 0.0337489318  -0.00625012902 -0.664661823
4920054000.000000  0.620103332 0.390705355  0.0232016798 -0.0332395656  0.0233067929 -0.0327203983  0.182682549 -0.659513641
4950052500.000000  0.542002055 0.505647081  -0.0369417224 -0.0109171715  -0.036460523 -0.011129549  0.348078711 -0.606738059
4980051000.000000  0.438213154 0.602794541  0.00230019222 0.0374663656  0.00203272911 0.0370594877  0.508435926 -0.513234693
5010049500.000000  0.304988034 0.674919703  0.0348036363 -0.0140122987  0.0346044102 -0.0135437841  0.635395097 -0.379710875
5040048000.000000  0.157026697 0.718083749  -0.023164367 -0.027622312  -0.0226908522 -0.02750016  0.721915536 -0.226577666
5070046500.000000  -0.0087186173 0.733691214  -0.0170941897 0.0305563789  -0.0171408291 0.0300005734  0.769981762 -0.0553044871
5100045000.000000  -0.178858545 0.703641843  0.0343079979 0.00572413227  0.0337789739 0.00595354867  0.77082004 0.125790533
5130043500.000000  -0.336131002 0.6322664  -0.00560597726 -0.033058363  -0.00523453558 -0.0327055765  0.732490591 0.298203244
5160042000.000000  -0.477511019 0.530864747  -0.0283230522 0.0169464903  -0.0281268614 0.0163338806  0.656111041 0.457947819
5190040500.000000  -0.590139431 0.39548887  0.0256313756 0.021038417  0.0250210853 0.0211195241  0.535457315 0.595220892
5220039000.000000  -0.663482028 0.242937841  0.0118242001 -0.0300288356  0.0120432576 -0.0294412335  0.383543512 0.696546697
5250037500.000000  -0.697906235 0.0796144634  -0.031202241 -0.00154263683  -0.03061621 -0.00193256761  0.215778819 0.763249286
5280036000.000000  -0.685225142 -0.0909153702  0.0080467054 0.0297257629  0.00736667964 0.0292874909  0.034451537 0.789763931
5310034500.000000  -0.624149661 -0.253272992  0.0246430011 -0.0163727424  0.0244393774 -0.0156794087  -0.137414827 0.772367959
5340033000.000000  -0.533786829 -0.400879405  -0.023758868 -0.0170495083  -0.0230311877 -0.0170145946  -0.297507759 0.717071448
5370031500.000000  -0.414674809 -0.523131117  -0.00952216212 0.0288974467  -0.00977325521 0.0280688889  -0.444781348 0.626390876
5400030000.000000  -0.275078626 -0.606755542  0.0295450798 0.00199659707  0.0287437184 0.00254795335  -0.559245185 0.502226311
5430028500.000000  -0.130410208 -0.656148122  -0.0075872759 -0.0263703223  -0.00684647263 -0.0258597484  -0.640901855 0.357764425
5460027000.000000  0.0239116388 -0.671456477  -0.0219863472 0.0175103557  -0.0219001237 0.0165441284  -0.686923126 0.191883253
5490025500.000000  0.178783409 -0.652695331  0.0237747194 0.0172883113  0.0228516573 0.0175191448  -0.690510106 0.020535416
5520024000.000000  0.322162507 -0.607006974  0.0102373224 -0.0258476905  0.0105199528 -0.0251354427  -0.657785781 -0.147287564
5550022500.000000  0.449308464 -0.531600206  -0.0248931605 -0.00105289713  -0.0244359675 -0.00136925287  -0.586636624 -0.306568515
5580021000.000000  0.554169995 -0.425722184  0.00921339345 0.0248937401  0.00875129336 0.0246167373  -0.473470617 -0.439601496
5610019500.000000  0.633594848 -0.304277394  0.0241864441 -0.0172284682  0.0239924724 -0.0165433181  -0.326337942 -0.539047978
5640018000.000000  0.687352954 -0.167763018  -0.0208098015 -0.0183791484  -0.0202089141 -0.0182895819  -0.147375602 -0.59955583
5670016500.000000  0.710540215 -0.0232352392  -0.0070095734 0.0232124156  -0.00722368547 0.0225964192  0.0484482153 -0.614174587
5700015000.000000  0.69871319 0.124050011  0.0272970119 -0.00380771473  0.0267949038 -0.00342625233  0.233365671 -0.583714927
5730013500.000000  0.666098133 0.269316819  -0.00893289457 -0.0279883053  -0.00856116282 -0.0275814854  0.395683048 -0.506244534
5760012000.000000  0.59916982 0.398332613  -0.0206172392 0.0135799824  -0.020287029 0.0132022169  0.528910405 -0.378360812
5790010500.000000  0.502370543 0.506597414  0.0223441472 0.00966554843  0.0218066574 0.00963661216  0.620252548 -0.219106606
5820009000.000000  0.383660532 0.592595423  0.00381102681 -0.0296957485  0.00398243553 -0.0289876944  0.671775238 -0.0425512394
5850007500.000000  0.246889711 0.650956735  -0.0272471328 0.00011954409  -0.0265902968 -2.28975479e-05  0.673068655 0.139568816
5880006000.000000  0.102935006 0.679951339  0.0102499106 0.0182234116  0.00988830835 0.0177732856  0.628379019 0.303909405
5910004500.000000  -0.0373289592 0.683834417  0.0149889579 -0.0220822785  0.0147625177 -0.0214712179  0.547190326 0.442363873
5940003000.000000  -0.178492141 0.654023924  -0.0249707177 -0.0138377557  -0.0242545598 -0.0137135538  0.427555574 0.552014658
5970001500.000000  -0.311451889 0.595771137  -0.00464742529 0.0205974766  -0.00465331768 0.02003929  0.289336303 0.628379223
6000000000.000000  -0.427205356 0.516240526  0.0199281932 -0.0103447545  0.0195046423 -0.00993626982  0.140805121 0.668631721
