! 2-port S-parameters written by miniscope-char acquisition
! instrument: Pico Technology Ltd,PicoVNA-106,10080,5.3.4
! transport: scpi
! endpoint: 127.0.0.1:5025
! demo: false
! calibration: software
# HZ S RI R 50
300000.000000  0.0234189117 0.0115613652  0.977972279 0.00598098745  0.968646628 0.00100248641  0.0238739238 0.00567884384
30298500.000000  -0.0667340576 -0.107516463  0.554328394 -0.7539987  0.548506973 -0.760771899  -0.0675775753 -0.105123196
60297000.000000  -0.141059624 -0.00730856526  -0.212815574 -0.878309116  -0.217033809 -0.87793757  -0.13818808 -0.000582558256
90295500.000000  -0.026541207 0.0036764742  -0.799485946 -0.399600917  -0.805495871 -0.395778664  -0.0199501569 0.00934038609
120294000.000000  -0.0461032773 -0.122089838  -0.800211773 0.351907152  -0.798347486 0.358240599  -0.0467642276 -0.118549056
150292500.000000  -0.147018233 -0.0799234893  -0.246435273 0.813948892  -0.243794233 0.817328722  -0.147610589 -0.0632820813
180291000.000000  -0.0606127294 -0.0165450787  0.452458981 0.716746685  0.456527865 0.717712473  -0.0467910653 0.00868404008
210289500.000000  -0.00690154423 -0.132564445  0.824893655 0.10788939  0.827297039 0.104543196  0.0101101482 -0.121126948
240288000.000000  -0.109506132 -0.160069876  0.607926587 -0.536419433  0.608053822 -0.54080983  -0.114745133 -0.142009217
270286500.000000  -0.0728395826 -0.0637656557  -0.00722259856 -0.811778805  -0.0109057912 -0.812902639  -0.070084063 -0.0073231827
300285000.000000  0.0267316499 -0.131172136  -0.620853875 -0.492804697  -0.62433627 -0.491418375  0.0849052377 -0.0926721027
330283500.000000  -0.0182000963 -0.216202893  -0.769749225 0.124363439  -0.771572597 0.12747433  -0.0284229393 -0.198265492
360282000.000000  -0.0308353028 -0.125299377  -0.413172201 0.667449733  -0.410625484 0.670010804  -0.0679835161 -0.0485544675
390280500.000000  0.103905573 -0.13410797  0.245590025 0.729734494  0.249601256 0.730876545  0.121395706 -0.0345703242
420279000.000000  0.0892163792 -0.226774538  0.69285146 0.294796785  0.695062054 0.293020856  0.0934858126 -0.1898759
450277500.000000  0.0447378464 -0.145986894  0.68828353 -0.333912559  0.688118853 -0.337840634  -0.0476488233 -0.0722535687
480276000.000000  0.175182563 -0.0941067046  0.176027996 -0.724073001  0.173153999 -0.726156903  0.124247776 0.0629744869
510274500.000000  0.204624863 -0.168510981  -0.412527064 -0.595678657  -0.416489986 -0.594863251  0.193618393 -0.0987442672
540273000.000000  0.146253217 -0.0985861284  -0.734194934 -0.0800991195  -0.73671597 -0.0773805223  -0.00236075929 -0.0760082546
570271500.000000  0.240535921 -0.00380380251  -0.511926948 0.503562657  -0.511042897 0.506603444  0.0635292416 0.150549838
600270000.000000  0.288595121 -0.056837386  0.0324933734 0.699648664  0.0364541871 0.700864991  0.217976354 0.0453956967
630268500.000000  0.197524481 -0.00595031415  0.55824912 0.435681829  0.561880298 0.433568487  0.0122515421 -0.0473241529
660267000.000000  0.246410378 0.132429942  0.670111943 -0.146648553  0.670572919 -0.150605851  -0.0544083093 0.199260113
690265500.000000  0.296656063 0.103560094  0.33684484 -0.582757668  0.334482269 -0.586062175  0.137408035 0.183792098
720264000.000000  0.174612183 0.13080565  -0.232504722 -0.641931037  -0.236972832 -0.641745563  -0.00974531436 -0.0158735027
750262500.000000  0.170998427 0.280802833  -0.620575673 -0.219147125  -0.623463156 -0.216544609  -0.20590232 0.172994482
780261000.000000  0.22115937 0.268042906  -0.575877842 0.296278083  -0.57546599 0.300295245  -0.0183183054 0.245619626
810259500.000000  0.0672855948 0.237853131  -0.133887657 0.640230631  -0.130535851 0.642293872  -0.0481646422 -0.0283779011
840258000.000000  -0.00533576476 0.382309844  0.375299674 0.479586646  0.379684859 0.478655149  -0.320638083 0.0497232654
870256500.000000  0.0388596629 0.371708071  0.608363984 0.0582528285  0.609947834 0.0547292051  -0.166891766 0.200342585
900255000.000000  -0.11195956 0.276079649  0.418750518 -0.453580548  0.417241331 -0.457180922  -0.0588019474 -0.105658807
930253500.000000  -0.245539557 0.377904266  -0.0699069193 -0.558459377  -0.0744667563 -0.558645838  -0.356743184 -0.159951423
960252000.000000  -0.201795293 0.379858377  -0.45728164 -0.336612946  -0.460321714 -0.335072091  -0.271281507 0.0699713686
990250500.000000  -0.293621926 0.220948703  -0.538712457 0.165198377  -0.538006118 0.168678569  -0.00102861325 -0.186650366
1020249000.000000  -0.455161394 0.230936383  -0.216489327 0.454079293  -0.214616422 0.456484675  -0.253235852 -0.369062756
1050247500.000000  -0.426250505 0.228106648  0.178311297 0.485856999  0.181758587 0.485747407  -0.26406389 -0.0920017512
1080246000.000000  -0.454560621 0.0370746024  0.479559019 0.121078836  0.481933374 0.117901746  0.127766753 -0.221939669
1110244500.000000  -0.590750449 -0.0179417748  0.353096157 -0.226894575  0.352595992 -0.229668194  -0.0493441049 -0.486515719
1140243000.000000  -0.57130546 -0.0242279677  0.0773997254 -0.42016954  0.0752520519 -0.421863043  -0.1766087 -0.182097988
1170241500.000000  -0.546781363 -0.17307798  -0.271216018 -0.257618719  -0.272757418 -0.257800498  0.303353739 -0.155705765
1200240000.000000  -0.612963569 -0.26456519  -0.302200602 -0.00589580509  -0.302811447 -0.00518957627  0.197727821 -0.477742356
1230238500.000000  -0.612351213 -0.28719426  -0.213388849 0.200494318  -0.213597638 0.200864075  -0.0540095621 -0.156233343
1260237000.000000  -0.570541779 -0.34032776  -0.00573561309 0.22198216  -0.00556134015 0.222970976  0.424785022 -0.00522807044
1290235500.000000  -0.542318525 -0.378028301  0.073498091 0.187717001  0.0744688447 0.187986848  0.348733627 -0.319646956
1320234000.000000  -0.502274169 -0.390522725  0.223793874 0.138502099  0.225186778 0.137173625  0.058304913 0.0148373787
1350232500.000000  -0.439655038 -0.355859882  0.281664537 -0.0655029625  0.280247566 -0.0678785485  0.409779265 0.172659757
1380231000.000000  -0.303374796 -0.334740793  0.195049554 -0.293060009  0.192630009 -0.294250883  0.338337392 -0.0430115645
1410229500.000000  -0.225955891 -0.394399749  -0.144571669 -0.382438773  -0.147597344 -0.380262985  0.0834984453 0.178325235
1440228000.000000  -0.200337053 -0.320739086  -0.389491115 -0.137136816  -0.391188884 -0.134889716  0.220805828 0.323808356
1470226500.000000  -0.0385375765 -0.256910115  -0.397625244 0.219729097  -0.397234718 0.22267319  0.174487661 0.194229859
1500225000.000000  0.022955547 -0.333429587  -0.068222566 0.466685038  -0.0661090117 0.468375554  -0.044558503 0.258913053
1530223500.000000  -0.0179958473 -0.240615137  0.302772021 0.359549456  0.305246327 0.359621869  -0.0486842746 0.354577293
1560222000.000000  0.115375528 -0.130737487  0.496420184 0.0045950856  0.497223956 0.00245500784  -0.0772500701 0.249295085
1590220500.000000  0.152377482 -0.207947669  0.315399911 -0.387794072  0.314527003 -0.390042215  -0.237820202 0.197763746
1620219000.000000  0.0362248982 -0.11013509  -0.0860776028 -0.493888472  -0.0887585612 -0.493958617  -0.290163262 0.201924486
1650217500.000000  0.140160792 0.0396951895  -0.442352256 -0.257409157  -0.444496241 -0.256035395  -0.299781343 0.104275025
1680216000.000000  0.17962674 -0.065524897  -0.478673772 0.172743925  -0.478957011 0.175388774  -0.356672247 -0.00819875185
1710214500.000000  -0.00381987879 -0.0224023353  -0.184760356 0.472581489  -0.182505566 0.47397511  -0.379884636 -0.0766314952
1740213000.000000  0.0418041493 0.154808486  0.239688075 0.449986197  0.242161993 0.449760093  -0.345421582 -0.159466451
1770211500.000000  0.128320389 0.0300155444  0.495562432 0.106148147  0.495948674 0.103641771  -0.302993286 -0.264255451
1800210000.000000  -0.0858232736 -0.036330948  0.397483337 -0.298790417  0.396594403 -0.301561601  -0.266247613 -0.351550527
1830208500.000000  -0.122841312 0.140098091  0.0398911615 -0.495981761  0.0368523693 -0.496389202  -0.206868092 -0.387756093
1860207000.000000  0.0255854238 0.0432989053  -0.356844646 -0.349791382  -0.359584266 -0.34751607  -0.0841321369 -0.414409195
1890205500.000000  -0.145835057 -0.129913634  -0.479495375 0.0452453783  -0.479908149 0.0482109967  0.0229788189 -0.478158031
1920204000.000000  -0.248941295 0.0175070026  -0.288240311 0.382304369  -0.286373277 0.38485011  0.0679779665 -0.476385928
1950202500.000000  -0.0400077229 -0.00678853319  0.114145015 0.473655343  0.117299133 0.473744119  0.183572579 -0.394360121
1980201000.000000  -0.0959421728 -0.252554499  0.41544771 0.206131538  0.417374556 0.204328102  0.323436484 -0.392322001
2010199500.000000  -0.235283969 -0.175634616  0.436102956 -0.163167118  0.435623823 -0.16451871  0.337476425 -0.361595382
2040198000.000000  -0.0266289696 -0.10591784  0.148447675 -0.453485687  0.148079455 -0.454431807  0.38452055 -0.19011825
2070196500.000000  0.040352559 -0.33868239  -0.235617672 -0.380931708  -0.23594208 -0.380896353  0.516938395 -0.109286045
2100195000.000000  -0.0960414776 -0.326492538  -0.440402711 -0.0978886498  -0.441023519 -0.0976821881  0.49231072 -0.0888945089
2130193500.000000  0.0568186561 -0.168613638  -0.364652459 0.294569728  -0.364308209 0.294771193  0.401262781 0.0874523319
2160192000.000000  0.219381986 -0.318074558  -0.0104683687 0.440091318  -0.00992338435 0.440527158  0.454414465 0.241338936
2190190500.000000  0.109800307 -0.344646237  0.313228297 0.319898379  0.314074011 0.319657827  0.411820908 0.238459064
2220189000.000000  0.185854478 -0.133143004  0.459342877 -0.0488499228  0.459903734 -0.0502612917  0.215571115 0.334289837
2250187500.000000  0.378421442 -0.179127538  0.2482659 -0.352197133  0.247950511 -0.353909337  0.164769869 0.491984411
2280186000.000000  0.291983179 -0.225608742  -0.0783680111 -0.434464346  -0.0804845838 -0.435075156  0.129937397 0.443861183
2310184500.000000  0.27138105 -0.00584125079  -0.400649077 -0.211913187  -0.403063097 -0.210968019  -0.101903613 0.374325662
2340183000.000000  0.436310687 0.0317919187  -0.397239792 0.147314366  -0.397316724 0.148898065  -0.249324984 0.451137132
2370181500.000000  0.352583915 -0.0332927173  -0.178003112 0.400735552  -0.176804727 0.401789972  -0.248006308 0.378167881
2400180000.000000  0.231022722 0.173964353  0.207581564 0.391827874  0.20916195 0.391658701  -0.38788047 0.174634935
2430178500.000000  0.349326596 0.27094442  0.398825562 0.1081802  0.399830018 0.107220423  -0.530495808 0.137697426
2460177000.000000  0.275107972 0.169156257  0.369771773 -0.219643198  0.370067523 -0.220540198  -0.465013259 0.06016957
2490175500.000000  0.0624239793 0.308283824  0.0538957021 -0.41965157  0.0528818601 -0.420300831  -0.441250577 -0.192770322
2520174000.000000  0.127050108 0.429142492  -0.245776455 -0.307738691  -0.246230192 -0.307717421  -0.501353562 -0.29916247
2550172500.000000  0.0917584396 0.274722477  -0.413021807 -0.0323393013  -0.413332728 -0.0311559272  -0.380818178 -0.325242543
2580171000.000000  -0.180248411 0.293423674  -0.265692183 0.29706176  -0.265392098 0.297754915  -0.221464438 -0.502573879
2610169500.000000  -0.175394387 0.418305374  0.0213752852 0.372667835  0.0220598394 0.373186254  -0.197404712 -0.596445819
2640168000.000000  -0.118972705 0.234503176  0.307926645 0.249325133  0.309092673 0.248925062  -0.0700122286 -0.542172399
2670166500.000000  -0.368058403 0.0919354645  0.36557085 -0.0865519628  0.366606602 -0.0871388956  0.145851378 -0.587846846
2700165000.000000  -0.423752423 0.189389228  0.190914746 -0.302920416  0.19100577 -0.304010461  0.210050148 -0.61493944
2730163500.000000  -0.269307414 0.051346898  -0.112184494 -0.36534217  -0.112796817 -0.366023072  0.294659149 -0.472527535
2760162000.000000  -0.39705559 -0.196113771  -0.330336989 -0.124570824  -0.331118927 -0.125363851  0.494788398 -0.397455085
2790160500.000000  -0.472976196 -0.148327508  -0.313712008 0.134309165  -0.313960017 0.134650754  0.543664166 -0.3787302
2820159000.000000  -0.257083938 -0.186241741  -0.103446156 0.352406555  -0.103703226 0.35340382  0.526440985 -0.198518699
2850157500.000000  -0.222566664 -0.44858944  0.196803225 0.272659478  0.197478781 0.272978104  0.651467743 -0.0275518772
2880156000.000000  -0.288230099 -0.445434692  0.324251151 0.0624649667  0.32488123 0.0613348967  0.662138785 0.0137812601
2910154500.000000  -0.0806334937 -0.365670272  0.271631529 -0.231083723  0.27126716 -0.232570477  0.52446358 0.175434217
2940153000.000000  0.0754289916 -0.543536889  -0.00931641663 -0.321803111  -0.0119747403 -0.321399777  0.531798685 0.394765082
2970151500.000000  0.031562353 -0.550181842  -0.225301786 -0.228587582  -0.2269704 -0.226276409  0.499522714 0.422713859
3000150000.000000  0.173052463 -0.38104899  -0.345536768 0.0407976164  -0.34478122 0.043693862  0.26706122 0.469349132
3030148500.000000  0.377017922 -0.439987807  -0.170756303 0.265075882  -0.168775569 0.265904974  0.136017402 0.638188868
3060147000.000000  0.350130241 -0.445923257  0.0563754839 0.31686458  0.0583121771 0.317057165  0.0824311852 0.616010942
3090145500.000000  0.401196449 -0.233020175  0.304928988 0.159630359  0.30698899 0.157928384  -0.156888396 0.484744356
3120144000.000000  0.574260899 -0.189279788  0.288716952 -0.110530202  0.288748153 -0.113204486  -0.375623644 0.519397122
3150142500.000000  0.530017539 -0.183553766  0.140394624 -0.285550268  0.138038538 -0.288060192  -0.397692998 0.447430509
3180141000.000000  0.477264132 0.0374855217  -0.151035906 -0.295319613  -0.154316111 -0.294335016  -0.485868766 0.179020566
3210139500.000000  0.591803668 0.145026576  -0.287388074 -0.0767167431  -0.288782492 -0.0737630147  -0.651329633 0.0609091838
3240138000.000000  0.525151056 0.135417271  -0.273877165 0.151664976  -0.272541983 0.154768019  -0.597707129 -0.0161898203
3270136500.000000  0.370213221 0.319642958  -0.0395877138 0.319659681  -0.0366681777 0.320171887  -0.482252614 -0.284353029
3300135000.000000  0.412534253 0.45159459  0.183321186 0.223531392  0.185128436 0.222010404  -0.510499981 -0.467447254
3330133500.000000  0.33586937 0.390064113  0.304996927 0.0368278661  0.305046777 0.0352582973  -0.402652106 -0.483022433
3360132000.000000  0.0868187416 0.469854452  0.210214906 -0.225254187  0.209510655 -0.225796809  -0.153783536 -0.596474955
3390130500.000000  0.0524934221 0.591745468  -0.0120498152 -0.276056244  -0.0123240596 -0.275833463  -0.0565042688 -0.71568265
3420129000.000000  0.010126571 0.47159457  -0.219216033 -0.198523514  -0.219071674 -0.198456166  0.0501812124 -0.649434013
3450127500.000000  -0.259321824 0.401303628  -0.283529827 0.061324884  -0.283210335 0.0613427765  0.296936553 -0.597914597
3480126000.000000  -0.345205315 0.471409304  -0.144967074 0.22311142  -0.144857644 0.222891787  0.425012111 -0.614303987
3510124500.000000  -0.306301184 0.320111021  0.0679497795 0.280489387  0.0678647805 0.280427413  0.478556949 -0.485521527
3540123000.000000  -0.491877717 0.0982367952  0.254644853 0.105802246  0.254549326 0.105991814  0.645004658 -0.315831197
3570121500.000000  -0.584355809 0.0986027291  0.238424607 -0.0910962479  0.238763747 -0.0909148032  0.733024755 -0.246190578
3600120000.000000  -0.445017515 -0.00751978543  0.10253774 -0.258824558  0.102610891 -0.258916318  0.692345885 -0.0956752192
3630118500.000000  -0.45090644 -0.286154124  -0.140103775 -0.221541769  -0.140133538 -0.222096174  0.725568246 0.130138398
3660117000.000000  -0.503980648 -0.331926684  -0.2408204 -0.0597788556  -0.241910893 -0.0604720643  0.7359849 0.23237481
3690115500.000000  -0.313229122 -0.341764654  -0.222584276 0.157270745  -0.224200218 0.158614023  0.599874288 0.348678545
3720114000.000000  -0.161323667 -0.561125724  -0.0079154667 0.25206116  -0.00716848546 0.254619535  0.503846185 0.559600634
3750112500.000000  -0.15989527 -0.613936602  0.158503355 0.184925903  0.161423133 0.185379109  0.437450267 0.635108962
3780111000.000000  0.00868017119 -0.510894451  0.26698231 -0.0025968371  0.268852158 -0.00544852502  0.224278882 0.636846661
3810109500.000000  0.228262452 -0.589226118  0.145338088 -0.191515945  0.143858063 -0.194217764  0.0132281692 0.746968536
3840108000.000000  0.254627768 -0.603801374  -0.0199087968 -0.234732561  -0.0226050737 -0.234911302  -0.0803843145 0.743964535
3870106500.000000  0.341212194 -0.432440182  -0.215317912 -0.146212315  -0.21716821 -0.14429326  -0.259606129 0.584163239
3900105000.000000  0.538909231 -0.381003123  -0.225528591 0.0704376563  -0.224970313 0.0725888983  -0.502061537 0.52425253
3930103500.000000  0.55908282 -0.357069387  -0.119615401 0.204683345  -0.118052283 0.205689293  -0.562783564 0.440815879
3960102000.000000  0.558822312 -0.159865873  0.0947758211 0.239075256  0.0962599799 0.238853061  -0.592607076 0.169724265
3990100500.000000  0.686411786 -0.0328383161  0.217748678 0.0741555437  0.218171199 0.0732761808  -0.723774447 -0.0415980389
4020099000.000000  0.66845525 0.00660653113  0.21472584 -0.0923475928  0.214881105 -0.0931797643  -0.686784066 -0.150387989
4050097500.000000  0.567865464 0.187059844  0.060020786 -0.240379557  0.0601198415 -0.241307866  -0.508329726 -0.372126418
4080096000.000000  0.605663355 0.344372393  -0.12486008 -0.180515105  -0.126023436 -0.181865566  -0.444469262 -0.596257823
4110094500.000000  0.547959578 0.36386821  -0.221784415 -0.0490749231  -0.224211824 -0.0483566504  -0.326211032 -0.639442934
4140093000.000000  0.360394141 0.482358553  -0.178379564 0.156458482  -0.178507881 0.159040662  -0.0432356359 -0.67885711
4170091500.000000  0.3150502 0.62576551  -0.00588085833 0.210071213  -0.00348969814 0.21085058  0.148233604 -0.778306708
4200090000.000000  0.238192175 0.59459218  0.144268051 0.166526419  0.145841593 0.164887894  0.264993861 -0.716663776
4230088500.000000  -0.00758855354 0.588564427  0.225414552 -0.0176579191  0.224937732 -0.0197764315  0.480472129 -0.563435525
4260087000.000000  -0.127469174 0.672242555  0.126029554 -0.156439151  0.124207724 -0.157313489  0.656916675 -0.500822105
4290085500.000000  -0.177311258 0.579569731  -0.0198430045 -0.212266294  -0.0215151237 -0.211499356  0.699795312 -0.365539952
4320084000.000000  -0.389995032 0.42870791  -0.184869127 -0.108072279  -0.185322995 -0.10617027  0.772244942 -0.121318948
4350082500.000000  -0.524399064 0.419921081  -0.186940556 0.0505432358  -0.185877731 0.051804911  0.845946603 0.0289357564
4380081000.000000  -0.494797207 0.290540441  -0.105225425 0.180706788  -0.103532646 0.18118646  0.784216559 0.165112383
4410079500.000000  -0.57293757 0.0241480114  0.0818064649 0.188802464  0.0830465748 0.187710983  0.701978117 0.384292267
4440078000.000000  -0.657952018 -0.0695041222  0.173370685 0.0703244736  0.173951314 0.0689550118  0.659216105 0.525778579
4470076500.000000  -0.540550781 -0.158571612  0.182644611 -0.0835510925  0.182177484 -0.0852784458  0.516614869 0.597926771
4500075000.000000  -0.44223575 -0.403021212  0.0363812338 -0.186180466  0.0346235243 -0.187063932  0.332444402 0.733954296
4530073500.000000  -0.434895683 -0.507258521  -0.0960108429 -0.147497913  -0.0978273244 -0.146796015  0.216866715 0.81109663
4560072000.000000  -0.278769716 -0.503029308  -0.192646372 -0.0308836831  -0.192982132 -0.0290134368  0.0425855478 0.777987614
4590070500.000000  -0.0673001351 -0.630860313  -0.131969529 0.13074364  -0.130783813 0.131749368  -0.203485388 0.779361351
4620069000.000000  -7.81032218e-05 -0.691569268  -0.00751274034 0.175022272  -0.00617712933 0.174795078  -0.349649319 0.757127912
4650067500.000000  0.130345107 -0.590474588  0.136821172 0.134826783  0.137605026 0.133577316  -0.474387873 0.601359121
4680066000.000000  0.358800787 -0.571248378  0.176053971 -0.0259176777  0.175515853 -0.027313895  -0.664352381 0.439784656
4710064500.000000  0.435542763 -0.564325543  0.106416247 -0.133349321  0.105443577 -0.133818344  -0.749212339 0.315938534
4740063000.000000  0.489544732 -0.409825403  -0.035755365 -0.18450399  -0.0370958702 -0.184092231  -0.735830103 0.0905906818
4770061500.000000  0.647048283 -0.289944124  -0.154022641 -0.0798242326  -0.154631728 -0.0788004811  -0.773612368 -0.175023975
4800060000.000000  0.690125716 -0.237161544  -0.16469162 0.0412793301  -0.164423088 0.0426113521  -0.738778943 -0.337624651
4830058500.000000  0.655271577 -0.0743702565  -0.083346924 0.164842949  -0.082013772 0.165490364  -0.550541838 -0.501596158
4860057000.000000  0.715997714 0.0985491327  0.0677998576 0.152658889  0.0687341417 0.15196669  -0.373152047 -0.712600473
4890055500.000000  0.705237265 0.166772137  0.150686929 0.0647209596  0.150933743 0.0635363478  -0.216992844 -0.785373459
4920054000.000000  0.585199157 0.297844548  0.153949323 -0.0842284489  0.153065856 -0.0851146703  0.0440989013 -0.75720572
4950052500.000000  0.552075576 0.464009468  0.0293930931 -0.154425804  0.0284513011 -0.154336604  0.300901725 -0.774199341
4980051000.000000  0.499646215 0.504161218  -0.0821933461 -0.134937977  -0.0826597774 -0.134282728  0.445574904 -0.704245302
5010049500.000000  0.324059928 0.548305504  -0.165944133 -0.0225430265  -0.165838399 -0.0218558379  0.599422006 -0.50955981
5040048000.000000  0.207733203 0.660001825  -0.112305831 0.0962452149  -0.111862473 0.0966801191  0.767528688 -0.357129209
5070046500.000000  0.130349987 0.6514892  -0.0167360952 0.146294056  -0.0162238042 0.146499493  0.813594993 -0.210088998
5100045000.000000  -0.0568396215 0.585700471  0.107332912 0.102269657  0.107734931 0.102020454  0.813222386 0.0135498611
5130043500.000000  -0.213561204 0.602873641  0.131361916 -0.00955773401  0.131658007 -0.0100438102  0.835865305 0.202082023
5160042000.000000  -0.269744967 0.533284911  0.0920134419 -0.103387647  0.0920175876 -0.104022667  0.773485808 0.338638156
5190040500.000000  -0.394696381 0.358692111  -0.0283027061 -0.141233391  -0.0292312968 -0.141496066  0.641753981 0.510929614
5220039000.000000  -0.535307686 0.279910954  -0.112764816 -0.0704223018  -0.113591491 -0.0698879344  0.53832548 0.663294502
5250037500.000000  -0.533318979 0.184597328  -0.138430324 0.0312712685  -0.138578594 0.032315393  0.39689784 0.728801512
5280036000.000000  -0.533971148 -0.0402507822  -0.0576446485 0.133612568  -0.056992158 0.134437501  0.185167137 0.786529873
5310034500.000000  -0.593890949 -0.18132952  0.0553091406 0.124284677  0.0561576484 0.124241783  0.0163812341 0.843191396
5340033000.000000  -0.522232166 -0.249219629  0.138873667 0.0524822756  0.139580357 0.0518758504  -0.133314833 0.806780889
5370031500.000000  -0.378111409 -0.415101228  0.130537334 -0.0811310459  0.130559831 -0.0820503169  -0.34140918 0.724661043
5400030000.000000  -0.327010628 -0.543787637  0.0333879128 -0.139744005  0.0327073463 -0.140446426  -0.514412167 0.659788488
5430028500.000000  -0.216218091 -0.550172037  -0.0763147418 -0.127253741  -0.0773904869 -0.127288623  -0.620861698 0.516933556
5460027000.000000  -0.0244194932 -0.600416102  -0.133796773 -0.0199231724  -0.134472389 -0.0190032923  -0.743501058 0.309719392
5490025500.000000  0.0752393526 -0.644809622  -0.0977069262 0.0683522668  -0.0976456588 0.0693998782  -0.816809633 0.137250614
5520024000.000000  0.170029756 -0.575306526  -0.0135970442 0.122773542  -0.0126037801 0.123352255  -0.775797236 -0.0611258632
5550022500.000000  0.331000224 -0.510752421  0.0861692281 0.0768951981  0.0871990423 0.0764309375  -0.709959387 -0.319520238
5580021000.000000  0.410399868 -0.480543497  0.111892393 -0.00249409678  0.112214609 -0.00342352497  -0.633231455 -0.500135453
5610019500.000000  0.426986636 -0.371173385  0.0867822855 -0.0905552887  0.0861891426 -0.0916663993  -0.450403882 -0.605954726
5640018000.000000  0.491105399 -0.224178399  -0.00724025936 -0.122428946  -0.00839080751 -0.122781974  -0.214813748 -0.727175206
5670016500.000000  0.534115602 -0.135834009  -0.0819129781 -0.0895662177  -0.0831273839 -0.0891653534  -0.0295095239 -0.783686857
5700015000.000000  0.495433294 -0.0346298795  -0.131071104 -0.00755086716  -0.131636385 -0.00636798592  0.167783463 -0.721993469
5730013500.000000  0.472914362 0.126849927  -0.0903746647 0.0890899472  -0.0899055236 0.0902757513  0.396743053 -0.638950648
5760012000.000000  0.485335981 0.223402886  -0.00296679431 0.124501716  -0.001884253 0.124899447  0.55592844 -0.543807531
5790010500.000000  0.412370718 0.277264036  0.0965635613 0.0876453446  0.0977318974 0.0871633087  0.652753815 -0.373276189
5820009000.000000  0.332466468 0.393274463  0.119610757 -0.0177011474  0.119800303 -0.0188531998  0.752581608 -0.172010649
5850007500.000000  0.300518331 0.447231833  0.0678753042 -0.0937094605  0.0673379423 -0.0944542196  0.792876838 -0.0069046014
5880006000.000000  0.198511497 0.438583989  -0.0336568596 -0.111495891  -0.0345069961 -0.111553929  0.74499704 0.173893096
5910004500.000000  0.0775982847 0.496712454  -0.0991018656 -0.0357769757  -0.0995573394 -0.0352638644  0.694569618 0.370108274
5940003000.000000  0.0341091676 0.512671467  -0.0932591403 0.0482580554  -0.0931630903 0.0488275795  0.62371223 0.497914863
5970001500.000000  -0.047981137 0.434185926  -0.0222374413 0.113172673  -0.0217601917 0.11349214  0.479572368 0.597131282
6000000000.000000  -0.18002527 0.400701663  0.0679390476 0.0885851121  0.0684282031 0.0887156038  0.325074859 0.710419588
