! 2-port S-parameters written by miniscope-char acquisition
! instrument: Pico Technology Ltd,PicoVNA-106,10080,5.3.4
! transport: scpi
! endpoint: 127.0.0.1:5025
! demo: false
! calibration: user
! calibration_file: June 2026 Short cable calibration.calx
# HZ S RI R 50
300000.000000  0.0403578274 0.00582356258  0.961397548 -0.00906538977  0.955602344 -0.000995897706  0.039772427 0.0021134166
30298500.000000  0.114205695 0.00655068859  0.657312738 -0.648543511  0.659058826 -0.647311218  0.102496884 0.0216198514
60297000.000000  0.0560503112 -0.0610496073  0.0578647149 -0.89888641  0.0605820879 -0.898485329  0.0537606788 -0.0200621498
90295500.000000  -0.0299805041 0.00467169154  -0.540837 -0.690526955  -0.539321164 -0.692702804  -0.0221926945 0.0272794269
120294000.000000  0.0239524335 0.0780989513  -0.83891083 -0.16389132  -0.838086476 -0.165521752  -0.0166100249 0.085704399
150292500.000000  0.067365282 0.000489201266  -0.729804319 0.418197779  -0.730525538 0.416765088  -0.00403831418 0.0512684868
180291000.000000  -0.0449380712 -0.051775388  -0.266156235 0.780622788  -0.26864642 0.780218729  -0.0772781251 0.0105725813
210289500.000000  -0.0793489004 0.0567551627  0.279534056 0.736960221  0.277846057 0.737878676  -0.112263352 0.064633022
240288000.000000  0.00624922601 0.0733598348  0.703152676 0.378964275  0.703541274 0.381247888  -0.0884726802 0.0428849486
270286500.000000  0.0213845718 -0.0634977379  0.768747945 -0.179553208  0.769203314 -0.177613049  -0.088914612 -0.0459004384
300285000.000000  -0.116717906 -0.0892268279  0.451838845 -0.621976292  0.453211173 -0.621555347  -0.157304745 -0.0874131308
330283500.000000  -0.119411598 0.0351389509  -0.0603996906 -0.758289547  -0.0583389013 -0.758976483  -0.160635081 -0.0583618106
360282000.000000  0.0574639463 0.00581769867  -0.526203301 -0.505533716  -0.524850879 -0.506259105  -0.0866630429 -0.0590579254
390280500.000000  0.0143745508 -0.16473136  -0.733246228 -0.0530647645  -0.734489086 -0.0547935692  -0.0441638909 -0.195455793
420279000.000000  -0.112060716 -0.138648702  -0.586061507 0.427693682  -0.587587067 0.426703198  -0.0935085653 -0.200352528
450277500.000000  -0.0471529389 -0.00190778987  -0.159300731 0.713031844  -0.16088668 0.71335959  -0.0317682994 -0.123665872
480276000.000000  0.117982872 -0.0786689406  0.334882316 0.623933398  0.334074255 0.624514301  0.110529862 -0.152884723
510274500.000000  0.0554721491 -0.206174015  0.645911501 0.255007739  0.64558414 0.256476807  0.1178182 -0.228443743
540273000.000000  -0.0370532437 -0.0998078787  0.664692219 -0.229264404  0.666151113 -0.228289152  0.0824901668 -0.165358278
570271500.000000  0.105016796 0.0184660354  0.328209935 -0.604836837  0.330127643 -0.604484593  0.168393469 -0.0472293195
600270000.000000  0.211783988 -0.107746289  -0.136005662 -0.646124859  -0.135354401 -0.646899836  0.273369977 -0.0472584059
630268500.000000  0.0672676527 -0.159682526  -0.518392236 -0.409133351  -0.518531392 -0.410080838  0.245944753 -0.0609067146
660267000.000000  0.017495683 0.048853519  -0.653154283 0.0479989568  -0.653552742 0.0473443757  0.190444001 0.0583051145
690265500.000000  0.214582119 0.112647363  -0.434965794 0.4383956  -0.435962306 0.437911816  0.236176399 0.17451035
720264000.000000  0.212077107 -0.0552519856  -0.0664745021 0.607151813  -0.0670974476 0.607110384  0.255798579 0.187988857
750262500.000000  -0.00519646142 0.00697809314  0.364370489 0.495941764  0.364574652 0.49702161  0.153790403 0.210173883
780261000.000000  0.0508683617 0.243605943  0.564329952 0.119302516  0.564073438 0.120175739  0.0660778347 0.337279666
810259500.000000  0.217368455 0.156455756  0.483739289 -0.243813547  0.484441627 -0.243898835  0.0718816405 0.411511387
840258000.000000  0.0205417247 -0.0146542222  0.195591625 -0.485859362  0.195840101 -0.485858433  0.0169279059 0.383226093
870256500.000000  -0.1552942 0.221225025  -0.147673271 -0.434816752  -0.146562673 -0.435467597  -0.114207687 0.404041259
900255000.000000  0.0447679238 0.307896777  -0.327026375 -0.238832452  -0.327216415 -0.239674406  -0.179416965 0.467996196
930253500.000000  0.0236435589 0.0232335363  -0.376929124 -0.0157251371  -0.377951147 -0.0167195819  -0.170606984 0.471841335
960252000.000000  -0.271186189 0.09954576  -0.320919232 0.173447449  -0.322168345 0.173625945  -0.142926431 0.389086416
990250500.000000  -0.177860159 0.247528494  -0.19147061 0.355049135  -0.192131264 0.355652786  -0.192624257 0.21101508
1020249000.000000  -0.0729216228 0.0795484647  0.0701174445 0.424734076  0.0698244579 0.425812173  -0.330976448 0.164964954
1050247500.000000  -0.227941143 -0.0347110175  0.337358712 0.310520689  0.338191561 0.309851823  -0.302256503 0.169592546
1080246000.000000  -0.252756142 0.00621504539  0.491304258 0.030091504  0.491429731 0.0294063662  -0.221706356 0.0509828388
1110244500.000000  -0.205547585 -0.0566637257  0.40888382 -0.321987976  0.408799235 -0.322663152  -0.252149446 -0.0949065477
1140243000.000000  -0.211252443 -0.118963091  0.0935027198 -0.523440543  0.093481356 -0.523456954  -0.279955588 -0.0929476475
1170241500.000000  -0.167627767 -0.155080857  -0.281550703 -0.463152668  -0.280320017 -0.464347673  -0.143837506 -0.0937202751
1200240000.000000  -0.12413336 -0.242297214  -0.518053972 -0.157362102  -0.516291278 -0.15999323  -0.0394230989 -0.234289024
1230238500.000000  -0.134527279 -0.281633489  -0.493191257 0.213253564  -0.493934474 0.21121715  -0.0897089297 -0.301198119
1260237000.000000  -0.0781893181 -0.245318596  -0.236122015 0.492238293  -0.238383393 0.490966734  -0.0688496587 -0.188080525
1290235500.000000  0.0461632868 -0.272549204  0.153758896 0.518633996  0.152613626 0.519646893  0.115646389 -0.145226869
1320234000.000000  0.0882754645 -0.338750557  0.44079205 0.288117349  0.440737715 0.289097157  0.187576824 -0.244079921
1350232500.000000  0.086760071 -0.305231853  0.52954945 -0.0617261859  0.530355048 -0.0612213063  0.097231835 -0.219016197
1380231000.000000  0.176120127 -0.219574591  0.35548078 -0.404286702  0.355678434 -0.404333097  0.111521461 -0.0211225153
1410229500.000000  0.280062398 -0.225254948  0.00275625647 -0.523082377  0.00206502735 -0.522681533  0.269456242 0.0415350013
1440228000.000000  0.274076557 -0.218207402  -0.328077363 -0.406864172  -0.328147727 -0.406817316  0.264692844 -0.0423929317
1470226500.000000  0.276144006 -0.0982755131  -0.523894312 -0.0897668673  -0.52316516 -0.0897432915  0.0904756159 0.0243191455
1500225000.000000  0.36768271 -0.0127364024  -0.440528322 0.268818264  -0.440609249 0.267999464  0.0704318339 0.226925673
1530223500.000000  0.385399996 -0.0162145659  -0.175315313 0.478339645  -0.176853657 0.477684103  0.159071702 0.245778178
1560222000.000000  0.295678213 0.0481632583  0.180364682 0.491113327  0.178763113 0.49170261  0.0723491971 0.12859399
1590220500.000000  0.271800143 0.200744446  0.452719411 0.241526641  0.452224092 0.242915555  -0.135061364 0.169077526
1620219000.000000  0.307746109 0.248503015  0.488543149 -0.091176158  0.489251807 -0.0899860046  -0.163207815 0.282156082
1650217500.000000  0.228629122 0.218764739  0.330379303 -0.387961667  0.332339619 -0.386713323  -0.0987596349 0.206429071
1680216000.000000  0.0727281324 0.295303422  -0.012482025 -0.508548699  -0.0106460375 -0.508619295  -0.202621247 0.0229132816
1710214500.000000  0.0434477858 0.403932187  -0.316611404 -0.367464309  -0.315884302 -0.368984423  -0.357242521 0.0105714161
1740213000.000000  0.0502462047 0.359224019  -0.478024633 -0.0993822535  -0.478292943 -0.100667565  -0.325133665 0.0481214483
1770211500.000000  -0.0871443002 0.248499992  -0.433801544 0.24602668  -0.434661503 0.245478202  -0.211665287 -0.0868647612
1800210000.000000  -0.25359683 0.276987386  -0.157916916 0.447847231  -0.158730412 0.447958988  -0.257638368 -0.264869035
1830208500.000000  -0.255715876 0.305266412  0.145249333 0.442598366  0.144661492 0.443000184  -0.304801306 -0.262532677
1860207000.000000  -0.235076284 0.161197567  0.411818366 0.248832087  0.411377513 0.249519048  -0.156916594 -0.227525978
1890205500.000000  -0.374805771 0.0108828694  0.449656311 -0.0932378156  0.449741556 -0.0925769026  0.00857626097 -0.373952021
1920204000.000000  -0.461915485 0.0232149924  0.282862133 -0.330898315  0.2832609 -0.329512371  -0.00592963501 -0.478440125
1950202500.000000  -0.361007392 -0.0018233576  0.0165932176 -0.450752192  0.0176251177 -0.450164616  0.00384108014 -0.387012019
1980201000.000000  -0.276150282 -0.216602934  -0.297792914 -0.333885578  -0.297110655 -0.334860789  0.208686102 -0.300875205
2010199500.000000  -0.355714476 -0.35068433  -0.406341463 -0.0620301603  -0.406760415 -0.0640111576  0.343352964 -0.384211853
2040198000.000000  -0.348250506 -0.312862788  -0.368357192 0.192184838  -0.369375251 0.190580668  0.302481682 -0.380117228
2070196500.000000  -0.152326343 -0.317257425  -0.148505858 0.411111228  -0.150110011 0.410584552  0.302747333 -0.176015113
2100195000.000000  -0.0280776404 -0.483710273  0.15908973 0.374846653  0.157555093 0.375681915  0.475934801 -0.0463661926
2130193500.000000  -0.0413538782 -0.534742682  0.337088902 0.200102317  0.336151747 0.201442422  0.522509645 -0.0712139155
2160192000.000000  0.027365605 -0.425931053  0.413255293 -0.0637466325  0.413692913 -0.0621934062  0.38151175 -0.0100235545
2190190500.000000  0.247070241 -0.3891698  0.244834266 -0.327421584  0.246344099 -0.32686416  0.319143142 0.234687064
2220189000.000000  0.341906676 -0.453706109  -0.00763041784 -0.379251233  -0.00657215905 -0.379554771  0.396553129 0.337874421
2250187500.000000  0.317085607 -0.396631995  -0.241024891 -0.312125934  -0.240739689 -0.313033689  0.342069104 0.278697065
2280186000.000000  0.381357555 -0.205024876  -0.405154772 -0.0634284053  -0.405566958 -0.064209507  0.0972051303 0.303621101
2310184500.000000  0.533052735 -0.130630162  -0.322146572 0.203790288  -0.322922508 0.203473941  -0.0193052643 0.468176833
2340183000.000000  0.542946337 -0.124868488  -0.14094586 0.351779547  -0.141637879 0.351457354  0.00160379794 0.468129392
2370181500.000000  0.454841608 0.000574091453  0.130102394 0.384230728  0.128663269 0.384304309  -0.0887433496 0.283868402
2400180000.000000  0.476183751 0.196822748  0.343415377 0.186725076  0.342470779 0.187241198  -0.338308842 0.209946707
2430178500.000000  0.508502708 0.249918648  0.369693509 -0.0525630856  0.369586658 -0.0510556923  -0.418001276 0.250315197
2460177000.000000  0.390019596 0.262643108  0.271748709 -0.283622709  0.27298192 -0.282001684  -0.338967254 0.143358043
2490175500.000000  0.230002514 0.406867877  0.00332147728 -0.387201119  0.00510041484 -0.386831936  -0.367637598 -0.120150554
2520174000.000000  0.204558067 0.519795941  -0.220442395 -0.284190047  -0.218448333 -0.285272116  -0.476027454 -0.224403613
2550172500.000000  0.145635523 0.47545192  -0.357520208 -0.0979986122  -0.356623106 -0.099659201  -0.413068575 -0.224259207
2580171000.000000  -0.0737353476 0.429629968  -0.333358083 0.177949205  -0.334339075 0.176071224  -0.213349078 -0.3547521
2610169500.000000  -0.234114195 0.5115721  -0.127737008 0.319790062  -0.129635727 0.319097667  -0.15763589 -0.549588488
2640168000.000000  -0.251508607 0.498848065  0.0765459695 0.331964645  0.0746107864 0.332679154  -0.144985651 -0.570067175
2670166500.000000  -0.306115568 0.308465827  0.292253285 0.213162631  0.291778769 0.21506417  0.0169013487 -0.481722354
2700165000.000000  -0.50861728 0.175963588  0.331725695 -0.0426044588  0.332195804 -0.0408572566  0.250204322 -0.524963873
2730163500.000000  -0.587583179 0.167663791  0.228045416 -0.210121159  0.229594839 -0.209224919  0.321429398 -0.57312684
2760162000.000000  -0.503549603 0.0771228921  0.0567982687 -0.325300833  0.0586015421 -0.325267053  0.335375847 -0.461639289
2790160500.000000  -0.468026328 -0.177623168  -0.190409186 -0.267869114  -0.188802043 -0.269019335  0.483182229 -0.272061976
2820159000.000000  -0.54504381 -0.314957197  -0.283274033 -0.0797968642  -0.283027729 -0.08078794  0.630226985 -0.225570207
2850157500.000000  -0.497310074 -0.321874353  -0.282782009 0.0990983615  -0.283093892 0.0978980053  0.616484015 -0.180721742
2880156000.000000  -0.28180844 -0.398474946  -0.146138024 0.283229375  -0.147089627 0.282698595  0.545179086 0.0102647004
2910154500.000000  -0.166703134 -0.591478946  0.078487058 0.278013694  0.0780734819 0.277884031  0.60239643 0.207507787
2940153000.000000  -0.144418779 -0.636271789  0.214815572 0.173592838  0.214255786 0.173611016  0.609015277 0.258751275
2970151500.000000  -0.0218302861 -0.552595696  0.299999199 -0.00585309842  0.299148111 -0.00581800744  0.453392553 0.303399723
3000150000.000000  0.20997079 -0.556471439  0.198975445 -0.211752489  0.19890963 -0.210666593  0.291319225 0.488290519
3030148500.000000  0.312080794 -0.609604668  0.028447615 -0.267760767  0.0296730403 -0.267046334  0.257226759 0.595679478
3060147000.000000  0.338569035 -0.533121645  -0.143857431 -0.24992409  -0.142695413 -0.250889742  0.170540838 0.54187784
3090145500.000000  0.459763882 -0.350784345  -0.291960701 -0.0816962924  -0.292428864 -0.0830400683  -0.0884055788 0.477059631
3120144000.000000  0.618263748 -0.281947302  -0.249780761 0.115063191  -0.250762484 0.114858213  -0.285214796 0.542282756
3150142500.000000  0.638972529 -0.235747727  -0.142570163 0.234202469  -0.143106958 0.23510129  -0.324362053 0.510271089
3180141000.000000  0.589611633 -0.0782254284  0.0490314092 0.29440293  0.0492464541 0.29508757  -0.363445158 0.289295366
3210139500.000000  0.635593653 0.118047979  0.227077765 0.169965385  0.227547036 0.170181249  -0.545933364 0.0885444723
3240138000.000000  0.658659749 0.200805707  0.270762296 0.00446040344  0.270899812 0.00423205619  -0.619379528 0.0240891562
3270136500.000000  0.551717167 0.275483578  0.231665717 -0.176808871  0.231397787 -0.176612124  -0.498275301 -0.092496871
3300135000.000000  0.428631297 0.454845338  0.041216761 -0.281214469  0.0413947655 -0.280744963  -0.386135227 -0.370368903
3330133500.000000  0.391782308 0.571596703  -0.122877898 -0.226541419  -0.122094259 -0.226304164  -0.386567273 -0.540972778
3360132000.000000  0.29434531 0.563120642  -0.239269562 -0.118396917  -0.238143331 -0.1190203  -0.295829427 -0.549585749
3390130500.000000  0.0645807788 0.567040471  -0.260941692 0.0826768426  -0.260741085 0.0813031245  -0.0466309989 -0.567568487
3420129000.000000  -0.0979419032 0.656441477  -0.129057627 0.207120876  -0.129582278 0.206004732  0.132871472 -0.673621112
3450127500.000000  -0.162297798 0.640338296  0.00898140464 0.241832347  0.00778109081 0.241183187  0.207554184 -0.666189643
3480126000.000000  -0.272975123 0.484169862  0.180415001 0.191739421  0.179076714 0.192233193  0.32586845 -0.51759536
3510124500.000000  -0.486414 0.372671026  0.245091545 0.0116408675  0.244513033 0.0129373581  0.540772077 -0.417038762
3540123000.000000  -0.583200479 0.328519937  0.193015886 -0.121609319  0.193536929 -0.120361541  0.643452108 -0.378570729
3570121500.000000  -0.549126728 0.197227545  0.0884914429 -0.228175111  0.0897366975 -0.227676121  0.637714299 -0.259382121
3600120000.000000  -0.554738918 -0.0653730063  -0.100704767 -0.224190311  -0.0996084064 -0.224591435  0.668508064 -0.0407211717
3630118500.000000  -0.630075087 -0.22143457  -0.198103349 -0.0978347063  -0.197850618 -0.0991220157  0.739202244 0.0928284071
3660117000.000000  -0.58088197 -0.280460393  -0.223295409 0.0372126167  -0.224383109 0.0359869764  0.702001712 0.173053288
3690115500.000000  -0.39424935 -0.409579219  -0.143472537 0.194855288  -0.145111336 0.195239921  0.572774967 0.328841784
3720114000.000000  -0.289977961 -0.614392052  0.0255566282 0.21856586  0.0251746032 0.219990748  0.518159631 0.523023802
3750112500.000000  -0.231060584 -0.684132998  0.139242148 0.160752475  0.140192513 0.16143963  0.460849815 0.595633026
3780111000.000000  -0.0776888025 -0.642108482  0.229320022 0.0400003898  0.22994921 0.039313259  0.284042776 0.590935935
3810109500.000000  0.152996635 -0.662467319  0.18143059 -0.130412112  0.181013263 -0.130991627  0.0412871061 0.671459583
3840108000.000000  0.272586904 -0.698338344  0.0617071999 -0.194240787  0.0610387031 -0.193781072  -0.0819782165 0.735767759
3870106500.000000  0.340706618 -0.621658631  -0.0672712582 -0.207483833  -0.0672692818 -0.206753118  -0.17420489 0.650114647
3900105000.000000  0.480999559 -0.466536183  -0.205692084 -0.106385846  -0.205115615 -0.106152774  -0.375453191 0.46918193
3930103500.000000  0.634024217 -0.390663517  -0.207186745 0.0495160846  -0.206630744 0.0489879275  -0.580812852 0.388756244
3960102000.000000  0.676055765 -0.308718613  -0.14392054 0.160357348  -0.144485884 0.159678485  -0.623036384 0.28805388
3990100500.000000  0.674685903 -0.128499175  -0.00225620964 0.23270983  -0.00337537329 0.232623367  -0.579271956 0.0389311853
4020099000.000000  0.739020526 0.05665766  0.142928929 0.159380357  0.14196634 0.160378513  -0.62336892 -0.241437136
4050097500.000000  0.75166908 0.155931385  0.195358742 0.0493112655  0.195664365 0.0511899898  -0.615858541 -0.379034357
4080096000.000000  0.65439666 0.257626875  0.199980183 -0.0850795052  0.202000728 -0.0843791523  -0.449746836 -0.457891413
4110094500.000000  0.54294103 0.443037677  0.0812893601 -0.197451877  0.0825469966 -0.199002937  -0.206321082 -0.619001802
4140093000.000000  0.496787764 0.57319407  -0.0495808259 -0.186313851  -0.0500733277 -0.187537572  -0.0648710296 -0.746822144
4170091500.000000  0.391069505 0.601911275  -0.152206292 -0.130239026  -0.152913546 -0.129900548  0.0642899026 -0.723548533
4200090000.000000  0.16986739 0.634269777  -0.210831786 0.0105717305  -0.210343844 0.0109127633  0.281195319 -0.61511868
4230088500.000000  -0.00724013765 0.729112761  -0.13580046 0.132791933  -0.135321924 0.132533686  0.494522316 -0.57490299
4260087000.000000  -0.109124944 0.727972145  -0.035748769 0.181842137  -0.0356090444 0.181233497  0.587708432 -0.503061048
4290085500.000000  -0.254341507 0.609409959  0.0992418775 0.173800519  0.0988113777 0.173149352  0.637366745 -0.314089339
4320084000.000000  -0.47400519 0.521744793  0.17901808 0.0507304344  0.178267647 0.0506486838  0.754727144 -0.102598634
4350082500.000000  -0.593179317 0.465506457  0.16181595 -0.0568288004  0.16115328 -0.0563564993  0.815215331 0.0233315356
4380081000.000000  -0.613572987 0.317624403  0.104465616 -0.151986285  0.104404102 -0.151453627  0.757466074 0.151729279
4410079500.000000  -0.659336037 0.0625263619  -0.0339174121 -0.185193893  -0.0335877276 -0.18492405  0.663701158 0.357513716
4440078000.000000  -0.734857279 -0.113448583  -0.12842227 -0.109527265  -0.128344544 -0.109838499  0.624039619 0.526225004
4470076500.000000  -0.692617833 -0.223473827  -0.169999144 -0.0190264921  -0.170519874 -0.0191407409  0.534313341 0.601896464
4500075000.000000  -0.535819259 -0.377785685  -0.149779681 0.108204637  -0.150161271 0.108769715  0.344751405 0.663050653
4530073500.000000  -0.425517396 -0.57959037  -0.0311527456 0.168055919  -0.0308959929 0.168700662  0.162550418 0.777189747
4560072000.000000  -0.341156093 -0.669575952  0.0694159767 0.148756351  0.0697569827 0.148791429  0.0351665068 0.816883377
4590070500.000000  -0.172734058 -0.672181918  0.16090601 0.0778837943  0.160860547 0.0778474282  -0.130070469 0.744900458
4620069000.000000  0.0612767041 -0.715349662  0.164801932 -0.056753709  0.164562313 -0.056433149  -0.369504013 0.666707243
4650067500.000000  0.211131103 -0.754106626  0.090555129 -0.131768148  0.0905454084 -0.131258939  -0.530548694 0.61072377
4680066000.000000  0.318386397 -0.689493831  -0.00130730675 -0.168633132  -0.000798052517 -0.168301147  -0.594816475 0.467198684
4710064500.000000  0.470536135 -0.5563753  -0.12203407 -0.126669291  -0.121321641 -0.126815912  -0.666585662 0.210388749
4740063000.000000  0.620163954 -0.472513986  -0.158660787 -0.0155733798  -0.158577592 -0.0161412495  -0.769731175 -0.00122415537
4770061500.000000  0.677722079 -0.378187017  -0.137523448 0.0773660706  -0.137750813 0.0769725276  -0.758005324 -0.155564815
4800060000.000000  0.697638321 -0.201243383  -0.0539849097 0.158486429  -0.054195719 0.158460957  -0.622137404 -0.347327674
4830058500.000000  0.768210094 -0.0157523563  0.0642747011 0.139470424  0.0639688023 0.139539892  -0.496073426 -0.578520817
4860057000.000000  0.792801241 0.100462071  0.124438681 0.0733636926  0.124205729 0.0734396857  -0.380433049 -0.702289887
4890055500.000000  0.722228307 0.218280456  0.155517342 -0.0182139302  0.155269765 -0.0179230448  -0.188907029 -0.719976177
4920054000.000000  0.628873195 0.399769871  0.0981115976 -0.121003855  0.0981483495 -0.120719321  0.0824887051 -0.73478605
4950052500.000000  0.578547703 0.541984647  0.0039798882 -0.140150466  0.00425071748 -0.139968988  0.285540438 -0.752074619
4980051000.000000  0.483181946 0.606042578  -0.0769077878 -0.120239705  -0.0764641439 -0.120343658  0.421109506 -0.667834608
5010049500.000000  0.304160061 0.663298337  -0.143894113 -0.0381918655  -0.143548604 -0.0386682725  0.568657531 -0.48335963
5040048000.000000  0.138809793 0.757553726  -0.120265972 0.0610265476  -0.120396824 0.0606293344  0.731082067 -0.321540385
5070046500.000000  0.014975995 0.780653957  -0.0609051242 0.115627683  -0.0613605887 0.11546061  0.795969268 -0.183728256
5100045000.000000  -0.1402711 0.70788489  0.0307972494 0.138259847  0.030105078 0.138418883  0.772858764 0.00413856692
5130043500.000000  -0.347888869 0.637002912  0.114387903 0.0743736742  0.114130866 0.0748549919  0.761959333 0.235819466
5160042000.000000  -0.484752091 0.581938702  0.127282035 -0.00591160765  0.127519585 -0.00538139037  0.743522807 0.402263403
5190040500.000000  -0.546048685 0.457735398  0.107383239 -0.0831445378  0.107772827 -0.082757893  0.643350724 0.517985633
5220039000.000000  -0.615517776 0.250228626  0.023835186 -0.13782332  0.0241333109 -0.138058861  0.472514992 0.649935539
5250037500.000000  -0.702887608 0.0789662242  -0.0627541648 -0.111727558  -0.0624604708 -0.112047572  0.324331007 0.773834562
5280036000.000000  -0.701213685 -0.0523668364  -0.11600836 -0.0545842657  -0.115964225 -0.0549566467  0.178455279 0.812756205
5310034500.000000  -0.608442914 -0.219858476  -0.12888415 0.040123444  -0.129074752 0.0396953666  -0.0228451238 0.788949257
5340033000.000000  -0.530071157 -0.41552714  -0.0619573018 0.109134143  -0.062312103 0.108932056  -0.238897312 0.780172479
5370031500.000000  -0.451681556 -0.529534889  0.0136839685 0.122055494  0.013250871 0.122038278  -0.391460572 0.735214368
5400030000.000000  -0.301721662 -0.57592334  0.0938793502 0.0926594008  0.0934409721 0.0930383498  -0.515797108 0.599056308
5430028500.000000  -0.1011005 -0.642747851  0.128435617 0.00447198287  0.128373056 0.00515657375  -0.666435517 0.421101972
5460027000.000000  0.0469247993 -0.699614152  0.0999459081 -0.0648070403  0.100316223 -0.0645252167  -0.773016887 0.269597526
5490025500.000000  0.164627203 -0.673732794  0.0483732948 -0.113711634  0.0489698745 -0.113827806  -0.786342859 0.104310266
5520024000.000000  0.320367481 -0.577961885  -0.0405941901 -0.120337836  -0.0405462191 -0.120808281  -0.741250744 -0.116173678
5550022500.000000  0.48501473 -0.504873934  -0.0986819335 -0.0604690695  -0.0989798749 -0.0606562291  -0.70187482 -0.330153308
5580021000.000000  0.576813534 -0.426687622  -0.113218909 0.0084636204  -0.113253689 0.00850549287  -0.611659101 -0.473307167
5610019500.000000  0.623391682 -0.285222063  -0.0836895861 0.0855785437  -0.0836327405 0.0857766257  -0.42723676 -0.577912594
5640018000.000000  0.695254502 -0.121694917  -0.00161897725 0.113066171  -0.00158173862 0.113065365  -0.211088624 -0.696527719
5670016500.000000  0.738575298 -0.00138798931  0.0613877676 0.0878530786  0.0614098161 0.0877053218  -0.0339556533 -0.756989224
5700015000.000000  0.707765216 0.116702975  0.107364728 0.0349810633  0.10760377 0.0348409463  0.140912366 -0.71617332
5730013500.000000  0.649825809 0.280020123  0.101896898 -0.045714223  0.102000572 -0.0458609421  0.351883169 -0.618087733
5760012000.000000  0.613412009 0.421153481  0.0500797231 -0.0875703133  0.0500047314 -0.0878107633  0.534150219 -0.527499082
5790010500.000000  0.542692797 0.504250916  -0.00624699982 -0.101982857  -0.00641302084 -0.102015746  0.639552581 -0.401574445
5820009000.000000  0.409530746 0.568113675  -0.0749087578 -0.0769511994  -0.0748995923 -0.0768166736  0.686070605 -0.207791217
5850007500.000000  0.270463748 0.649481117  -0.0998022806 -0.00775739314  -0.0997077959 -0.00764689338  0.733732327 0.00711254602
5880006000.000000  0.161885923 0.690359675  -0.082804133 0.0521365546  -0.0827142784 0.0520801377  0.738540539 0.17798938
5910004500.000000  0.0377236668 0.666984788  -0.0338115242 0.0988613214  -0.0337297593 0.0987170738  0.657460336 0.323451524
5940003000.000000  -0.125307217 0.631039727  0.0416149547 0.0941887524  0.0414923041 0.0940459823  0.536007714 0.490483016
5970001500.000000  -0.260985781 0.600722309  0.0838545141 0.0500184886  0.0837202139 0.0501980081  0.42617268 0.626685941
6000000000.000000  -0.350334247 0.524840667  0.100699275 -0.00785472378  0.100734598 -0.00738147865  0.29381193 0.687822992
