! 2-port S-parameters written by miniscope-char acquisition
! instrument: Pico Technology Ltd,PicoVNA-106,10080,5.3.4
! transport: scpi
! endpoint: 127.0.0.1:5025
! demo: false
! calibration: software
# HZ S RI R 50
300000.000000  0.0402767931 0.014815415  0.962072445 -0.00834776861  0.950504968 -0.00480415435  0.0411716585 0.00789344254
30298500.000000  -0.0307202749 -0.0190333429  -0.499718715 -0.712948783  -0.503057495 -0.712709481  -0.0343155499 -0.0261979472
60297000.000000  -0.012987956 -0.0381986266  -0.367045245 0.733641751  -0.369140552 0.732399235  -0.0121853208 -0.0438139001
90295500.000000  0.00786970587 0.0131071649  0.781031425 -0.00903124379  0.783277876 -0.0114205562  -0.00261822952 0.0113424927
120294000.000000  -0.0452131999 0.0254349753  -0.34815935 -0.663169036  -0.349528601 -0.663202667  -0.0618905465 5.80597823e-05
150292500.000000  -0.0273161091 -0.0282344291  -0.417572789 0.587707713  -0.420205465 0.58840714  -0.0384894741 -0.0265192811
180291000.000000  -0.00226444226 0.0146301962  0.689538344 0.110086666  0.691214539 0.11297331  -0.0299381796 0.00717310207
210289500.000000  -0.056651475 0.0255872358  -0.199331571 -0.644382682  -0.198165845 -0.646673353  -0.0767605919 -0.00796573389
240288000.000000  -0.0429536615 -0.0384280252  -0.476478281 0.450845134  -0.479858967 0.451240762  -0.0604912848 -0.0426031903
270286500.000000  -0.0100868618 0.00427522591  0.597516029 0.227219203  0.598092225 0.229495554  -0.0400125063 -0.0157694331
300285000.000000  -0.0449974208 0.0231916098  -0.0580907446 -0.620385249  -0.0566982154 -0.622904639  -0.0675534999 -0.0483221264
330283500.000000  -0.0201394468 -0.0562720224  -0.520177326 0.315811741  -0.523344814 0.315259222  -0.0684767095 -0.065080978
360282000.000000  0.0206237573 -0.0211775481  0.500519966 0.321420752  0.500584312 0.323473656  -0.0394428 -0.06149482
390280500.000000  -0.0102807099 -0.0241252876  0.0708867995 -0.57469045  0.0729353798 -0.576848676  -0.0424817622 -0.0446684516
420279000.000000  0.00702239992 -0.0688997488  -0.542564094 0.179753311  -0.544576693 0.178247442  -0.0427297392 -0.0734880869
450277500.000000  0.0490629549 -0.0590251128  0.394366608 0.403012078  0.394106445 0.405043348  0.0142420415 -0.0786570835
480276000.000000  0.0318213023 -0.0338404356  0.188041066 -0.515622612  0.189937701 -0.51647009  0.00925173041 -0.038853753
510274500.000000  0.0437328439 -0.0567000856  -0.53147524 0.0533183245  -0.532543469 0.0522859736  0.00597029719 -0.0638651426
540273000.000000  0.0795238381 -0.0375050839  0.274704777 0.452783471  0.274130983 0.455305418  0.0494131151 -0.0595633432
570271500.000000  0.0869893291 -0.00144016389  0.280595502 -0.434715642  0.282513616 -0.434924005  0.0509589728 -0.00799059322
600270000.000000  0.0900092925 -0.00823925508  -0.500234374 -0.0652308142  -0.501355402 -0.066039491  0.0192121514 -0.0286794328
630268500.000000  0.115684814 -0.00948147514  0.154928731 0.471751718  0.154782063 0.473245444  0.0687532991 -0.0232366485
660267000.000000  0.105377357 0.0335752306  0.351455245 -0.335338326  0.352648493 -0.335981061  0.041890342 0.0317772329
690265500.000000  0.0906945054 0.0618571646  -0.448798709 -0.173531434  -0.449908563 -0.174693924  -0.0193251475 0.0310763552
720264000.000000  0.0902285996 0.0548316474  0.033402922 0.472828476  0.0331128538 0.474157443  0.0200447698 0.0366025945
750262500.000000  0.0996039281 0.0994128185  0.403914568 -0.227992262  0.405304917 -0.228515846  -0.00992400757 0.0887617149
780261000.000000  0.0528796684 0.108918776  -0.376781066 -0.264496216  -0.377174461 -0.265851239  -0.0534821219 0.0573860249
810259500.000000  0.0268192472 0.0902623532  -0.0750942674 0.445896616  -0.0755939151 0.447076621  -0.042652721 0.0415812025
840258000.000000  0.0262853186 0.126018784  0.427981192 -0.11938396  0.429274943 -0.119308956  -0.0622198151 0.0753880266
870256500.000000  -0.0243463002 0.12900996  -0.287933833 -0.332523427  -0.288200415 -0.334023767  -0.11779733 0.0270095608
900255000.000000  -0.0685287307 0.0823090322  -0.173572437 0.395590085  -0.174775623 0.396530774  -0.106537992 -0.0136034005
930253500.000000  -0.0771453094 0.0928863127  0.423717869 -0.0106381763  0.424993994 -0.0103024762  -0.100068003 -0.00431899549
960252000.000000  -0.120355247 0.104793039  -0.186737121 -0.370318793  -0.187193765 -0.372106834  -0.152405922 -0.0498041173
990250500.000000  -0.154373395 0.0395217567  -0.250195579 0.322654877  -0.25150016 0.323501294  -0.120825766 -0.109585898
1020249000.000000  -0.12728203 0.00620817777  0.395325486 0.0910862548  0.396730011 0.0915551794  -0.0939494514 -0.105991461
1050247500.000000  -0.167720393 0.00261586934  -0.0810263569 -0.387468437  -0.0814418039 -0.389147766  -0.118704388 -0.127936566
1080246000.000000  -0.183762389 -0.0793033727  -0.30715146 0.238605419  -0.30763317 0.239719297  -0.0671202473 -0.189615826
1110244500.000000  -0.134256399 -0.137292209  0.342540324 0.168839769  0.343888038 0.169383084  -0.0029216861 -0.189927606
1140243000.000000  -0.160240636 -0.132390974  0.0124787852 -0.37437229  0.012652946 -0.375805453  -0.0310826179 -0.178352972
1170241500.000000  -0.163018392 -0.208804736  -0.335626755 0.142984415  -0.33703239 0.14287113  0.0185587934 -0.23381622
1200240000.000000  -0.0880777294 -0.230289504  0.273689269 0.240756534  0.27410309 0.242314068  0.0965307386 -0.16981608
1230238500.000000  -0.0671864046 -0.214909822  0.10063682 -0.347763496  0.102726775 -0.348151296  0.0825329785 -0.140430581
1260237000.000000  -0.0459563593 -0.260106922  -0.349114023 0.0553296255  -0.350452456 0.0538571845  0.130808672 -0.167077787
1290235500.000000  0.0429355226 -0.272108381  0.197785694 0.285705883  0.19752768 0.287391638  0.194856531 -0.094192104
1320234000.000000  0.082152378 -0.221418202  0.173614648 -0.299103031  0.174757483 -0.299842211  0.158167625 -0.0445323698
1350232500.000000  0.115978536 -0.239076027  -0.339007379 -0.0295610196  -0.339893175 -0.0297938813  0.160440394 -0.04842629
1380231000.000000  0.184483858 -0.224819711  0.117308427 0.312688025  0.117890743 0.313275702  0.201604446 0.0394092753
1410229500.000000  0.224900571 -0.150977409  0.229394938 -0.240674313  0.229117984 -0.241506548  0.140222883 0.102055549
1440228000.000000  0.232317017 -0.126582302  -0.310774856 -0.103912916  -0.311441994 -0.103728472  0.117315178 0.0787020873
1470226500.000000  0.286537144 -0.0906282226  0.0380791169 0.317689042  0.0381172469 0.318158161  0.12614363 0.12628574
1500225000.000000  0.301805724 -0.0230404815  0.269333508 -0.168792349  0.269941599 -0.168866404  0.0190983572 0.173771098
1530223500.000000  0.267389834 0.0310593806  -0.265553109 -0.172909653  -0.265706906 -0.17408618  -0.0311573395 0.132788131
1560222000.000000  0.254355159 0.0713417224  -0.0454569467 0.309992072  -0.0464652383 0.310651437  -0.0406905732 0.159080417
1590220500.000000  0.248402157 0.157475553  0.29364378 -0.0898796201  0.2946473 -0.0893349605  -0.112368208 0.174954094
1620219000.000000  0.178890765 0.201318021  -0.206401517 -0.227284689  -0.206344403 -0.228456768  -0.152864201 0.083204123
1650217500.000000  0.118019943 0.228019664  -0.117801566 0.280278599  -0.118886394 0.280672694  -0.156910109 0.0434814085
1680216000.000000  0.0836404651 0.277582923  0.297066221 -0.011648406  0.297965178 -0.0102634308  -0.211096436 0.0279952046
1710214500.000000  -0.000107390892 0.320041916  -0.134677529 -0.258614904  -0.134458494 -0.259715201  -0.243822405 -0.0704261883
1740213000.000000  -0.0710834167 0.28073168  -0.178544289 0.229467535  -0.179721313 0.229862572  -0.188005628 -0.115334115
1770211500.000000  -0.122942402 0.272542151  0.276573971 0.0643950601  0.277330002 0.0649389606  -0.179556872 -0.145250593
1800210000.000000  -0.200410839 0.275781009  -0.0563005498 -0.269212005  -0.0564762896 -0.270119952  -0.176617601 -0.245517758
1830208500.000000  -0.264536578 0.191144205  -0.218103175 0.164302531  -0.218474371 0.164527871  -0.0849504156 -0.289154989
1860207000.000000  -0.272096419 0.128307461  0.235652033 0.128196922  0.236100249 0.128424623  -0.0530637556 -0.289771801
1890205500.000000  -0.334939259 0.0887648354  0.0166228447 -0.260741466  0.0168754515 -0.260955801  -0.0211990517 -0.328556899
1920204000.000000  -0.375476678 -0.0166739734  -0.239118765 0.0950549715  -0.239386634 0.0949183417  0.0931439194 -0.343599418
1950202500.000000  -0.326157116 -0.0809439962  0.183453105 0.178756532  0.183169978 0.178971802  0.135075644 -0.284962222
1980201000.000000  -0.308875493 -0.129503238  0.0810751231 -0.237363607  0.0817555034 -0.237675831  0.177626352 -0.283685698
2010199500.000000  -0.286106716 -0.248365576  -0.244725481 0.0295722036  -0.245147212 0.0287232619  0.256129112 -0.261566365
2040198000.000000  -0.187969013 -0.309541189  0.129677829 0.207628194  0.128579135 0.208857037  0.28973579 -0.162310779
2070196500.000000  -0.137124516 -0.344872291  0.129797879 -0.203354616  0.131281033 -0.20283917  0.277023668 -0.103384475
2100195000.000000  -0.0800288754 -0.406640507  -0.235550723 -0.0280470356  -0.23592343 -0.0296304466  0.321737168 -0.0559357722
2130193500.000000  0.0322555718 -0.434193575  0.07563468 0.221583516  0.0743944257 0.222325063  0.32435113 0.0675204689
2160192000.000000  0.119901816 -0.406899066  0.165808174 -0.161843062  0.166931182 -0.161286068  0.263620436 0.125571511
2190190500.000000  0.189983646 -0.412212864  -0.213095454 -0.081297131  -0.21311303 -0.0823211471  0.251488314 0.152417939
2220189000.000000  0.295913624 -0.389939459  0.0149543249 0.221312871  0.0143636403 0.221773765  0.210342051 0.25945079
2250187500.000000  0.375990729 -0.317537409  0.189285904 -0.105424585  0.190185895 -0.105283113  0.105772976 0.295856679
2280186000.000000  0.397552399 -0.27809809  -0.171556936 -0.133398258  -0.171876815 -0.134045549  0.0843616327 0.258151937
2310184500.000000  0.445445629 -0.197717275  -0.0477391233 0.209662017  -0.0481632622 0.210173815  -0.00312426814 0.292051384
2340183000.000000  0.477683156 -0.0848806736  0.206016243 -0.0489586515  0.206379669 -0.0483924991  -0.123018771 0.25043047
2370181500.000000  0.474411061 0.00495908774  -0.134112789 -0.167175131  -0.133443315 -0.167626975  -0.170208159 0.156573584
2400180000.000000  0.459767123 0.0842469726  -0.0982468287 0.189659343  -0.0990953479 0.189446867  -0.234561154 0.138439362
2430178500.000000  0.440902771 0.198962659  0.206235237 0.00810124144  0.206426268 0.00897405997  -0.317835988 0.0587364941
2460177000.000000  0.370025759 0.291398281  -0.0805763682 -0.187928951  -0.0798604815 -0.188390145  -0.308450732 -0.060963596
2490175500.000000  0.299392272 0.337957998  -0.138963901 0.150375008  -0.139881015 0.14973776  -0.277707847 -0.11735989
2520174000.000000  0.222960241 0.398918419  0.190446282 0.0598725083  0.190137096 0.0609554996  -0.281431014 -0.22471286
2550172500.000000  0.10900997 0.464107721  -0.0273002407 -0.190534435  -0.0265074046 -0.190890801  -0.228124517 -0.343610812
2580171000.000000  0.00716266974 0.442487426  -0.164131965 0.102662379  -0.164956604 0.102120244  -0.142179476 -0.371885273
2610169500.000000  -0.0675893748 0.415314693  0.156084933 0.108371669  0.15591451 0.109188095  -0.104680626 -0.431442212
2640168000.000000  -0.216326192 0.383012358  0.0302740692 -0.182320226  0.0311263767 -0.182589993  -0.016257932 -0.465011713
2670166500.000000  -0.326917397 0.290110884  -0.175782385 0.0510554347  -0.176580954 0.05033406  0.0996834058 -0.444963133
2700165000.000000  -0.38086155 0.216152954  0.116784875 0.140608099  0.116287254 0.141441681  0.162775819 -0.404801582
2730163500.000000  -0.459002689 0.133132022  0.0773018145 -0.158025619  0.078325562 -0.157935133  0.247748687 -0.390423374
2760162000.000000  -0.498977186 -0.0061492898  -0.172000609 0.00290729383  -0.172236466 0.0016522694  0.342995692 -0.312386293
2790160500.000000  -0.480300608 -0.114659489  0.0759046297 0.157241057  0.0749754221 0.157873275  0.371546608 -0.210035397
2820159000.000000  -0.463239269 -0.210047661  0.1108098 -0.12689766  0.111547069 -0.12644522  0.418160572 -0.149782769
2850157500.000000  -0.419584806 -0.339023283  -0.15438268 -0.0424314614  -0.154084571 -0.0432203364  0.466753884 -0.0486102196
2880156000.000000  -0.323830763 -0.431988884  0.029740155 0.1610221  0.0291903348 0.160905365  0.440637058 0.0772569223
2910154500.000000  -0.238032338 -0.467685909  0.138713126 -0.0877824677  0.13900451 -0.0874400186  0.415325628 0.13872078
2940153000.000000  -0.121968124 -0.525054396  -0.134642234 -0.0834394422  -0.134380679 -0.0833124348  0.388087281 0.239698919
2970151500.000000  0.0265845605 -0.553174853  -0.0127553404 0.158165262  -0.0123499325 0.157879072  0.302661703 0.341753405
3000150000.000000  0.144348719 -0.538701454  0.148947446 -0.0518629304  0.148575914 -0.0519218668  0.20388297 0.371876741
3030148500.000000  0.244667019 -0.538800613  -0.103925102 -0.107629126  -0.103862478 -0.107396647  0.140117196 0.388545805
3060147000.000000  0.359709859 -0.489265556  -0.0491673496 0.145085346  -0.0491573505 0.145196003  -0.0011373928 0.412918281
3090145500.000000  0.450964998 -0.398108399  0.154307937 -0.010514093  0.154685637 -0.0106703079  -0.136499735 0.355930519
3120144000.000000  0.515702007 -0.31040906  -0.0684826443 -0.127399784  -0.0690098379 -0.127560962  -0.210430768 0.297964768
3150142500.000000  0.576967685 -0.211096466  -0.0790810749 0.118719913  -0.0787798684 0.119400784  -0.311198043 0.246740721
3180141000.000000  0.622405731 -0.0769197953  0.142784287 0.025148843  0.143099968 0.0246142633  -0.385704037 0.124501674
3210139500.000000  0.629236391 0.0274934071  -0.0287522256 -0.134610194  -0.0294937088 -0.134478732  -0.36909165 -0.00334639299
3240138000.000000  0.609739014 0.126832277  -0.104780128 0.0841901786  -0.104226665 0.0846234812  -0.393890323 -0.100297187
3270136500.000000  0.577618797 0.2499584  0.122874001 0.0630316533  0.122746801 0.0624009442  -0.389668563 -0.241362487
3300135000.000000  0.483129694 0.351797316  0.0121187901 -0.137177744  0.0118985486 -0.136814864  -0.296077406 -0.319958787
3330133500.000000  0.391987682 0.438247936  -0.124334108 0.049370122  -0.124015553 0.0489087156  -0.201171389 -0.372926646
3360132000.000000  0.294426288 0.514673806  0.0993440682 0.0919438746  0.0986199692 0.0921971964  -0.108206027 -0.463133276
3390130500.000000  0.146456236 0.569043321  0.0422480727 -0.12597926  0.0430495467 -0.125364482  0.026541817 -0.495113345
3420129000.000000  0.00838890372 0.575627207  -0.127530064 0.0171876893  -0.127439848 0.0161631327  0.139861135 -0.47573002
3450127500.000000  -0.105225957 0.568847817  0.0676876 0.110171195  0.0667185512 0.110476164  0.226636403 -0.472225713
3480126000.000000  -0.255503371 0.521912322  0.0720528024 -0.10537559  0.0728042022 -0.104605979  0.34476586 -0.420268852
3510124500.000000  -0.38318914 0.422803745  -0.123340251 -0.0173554467  -0.123114529 -0.0183142257  0.432056713 -0.323464646
3540123000.000000  -0.466741584 0.319070612  0.0370079914 0.121325344  0.035971286 0.121698049  0.484275259 -0.237205001
3570121500.000000  -0.543823125 0.195376453  0.0955366335 -0.0801835252  0.0962201317 -0.079285355  0.554684127 -0.141551399
3600120000.000000  -0.579584169 0.0144882324  -0.11095662 -0.0497185532  -0.110453664 -0.050642725  0.564123787 -0.0176645156
3630118500.000000  -0.574593892 -0.127144157  0.00404386534 0.12211882  0.00288260464 0.122247877  0.519456276 0.112779387
3660117000.000000  -0.537058013 -0.253131571  0.108781078 -0.051358828  0.109689281 -0.050541833  0.509841969 0.227017804
3690115500.000000  -0.463022512 -0.408451768  -0.0887685364 -0.0730751768  -0.0888916347 -0.0741990279  0.460517354 0.348214787
3720114000.000000  -0.34480062 -0.528976756  -0.026674078 0.110419513  -0.027195783 0.111230693  0.360167288 0.439800422
3750112500.000000  -0.239009589 -0.598480824  0.113555053 -0.0161047304  0.114237008 -0.0162884267  0.264319772 0.474219085
3780111000.000000  -0.0970517652 -0.645284521  -0.0596145844 -0.094275693  -0.0601985144 -0.0944351428  0.138189073 0.531855375
3810109500.000000  0.0720447146 -0.65737482  -0.0564890307 0.0928509412  -0.0562494143 0.0931944353  -0.00661933129 0.542287711
3840108000.000000  0.205642713 -0.63267819  0.107867322 0.0136703082  0.107870384 0.0133588849  -0.124273057 0.489020143
3870106500.000000  0.323127767 -0.594583302  -0.0286982663 -0.102548733  -0.0288381127 -0.102496258  -0.218727909 0.448998022
3900105000.000000  0.450496818 -0.505777191  -0.0797012422 0.0722140081  -0.0796982871 0.0722191221  -0.330781166 0.338466451
3930103500.000000  0.557343079 -0.399106522  0.0996586791 0.0399472223  0.0996480492 0.0400644591  -0.401792916 0.186373571
3960102000.000000  0.637076718 -0.294605183  -0.00501865254 -0.103043622  -0.00477338471 -0.103152422  -0.426411287 0.0534659953
3990100500.000000  0.693372012 -0.178486185  -0.0879959123 0.0463655007  -0.0882734747 0.0460880308  -0.466260575 -0.0921734052
4020099000.000000  0.721666075 -0.0357383292  0.0775638113 0.0596292021  0.0774307779 0.0600596838  -0.431855141 -0.251853138
4050097500.000000  0.708759216 0.095282091  0.0237323387 -0.0930011884  0.0244252648 -0.093238658  -0.345172693 -0.353746753
4080096000.000000  0.681822962 0.217072692  -0.0924241251 0.0159653708  -0.0931812095 0.0156035196  -0.264294172 -0.44469654
4110094500.000000  0.619312395 0.348906874  0.0545696389 0.0761301418  0.0549524748 0.0767997618  -0.119563895 -0.530791931
4140093000.000000  0.524468041 0.470567156  0.0439075128 -0.0806320811  0.0439977324 -0.0812031682  0.0328477551 -0.556557727
4170091500.000000  0.424636604 0.563167199  -0.0912705774 -0.00642021759  -0.0913686819 -0.00604668399  0.15918443 -0.539571272
4200090000.000000  0.304991534 0.643149593  0.0299113166 0.0852981272  0.0301007364 0.0849686522  0.302564289 -0.513570355
4230088500.000000  0.142605504 0.685490487  0.0637128964 -0.0631541822  0.0632656461 -0.0629724785  0.429907379 -0.416697013
4260087000.000000  -0.0168100706 0.693463451  -0.0846443639 -0.0292279958  -0.0842882565 -0.0288815673  0.519343539 -0.299089663
4290085500.000000  -0.160393177 0.677731405  0.00577625175 0.088348958  0.00589868348 0.0879382392  0.592755291 -0.193502534
4320084000.000000  -0.318690332 0.613614886  0.0753423262 -0.0417421823  0.0750624261 -0.0416146667  0.637133593 -0.0395467996
4350082500.000000  -0.459926719 0.499746264  -0.0714153726 -0.0494648287  -0.0711240333 -0.0494460635  0.628539702 0.116600856
4380081000.000000  -0.568420743 0.368659009  -0.0169937359 0.0835534621  -0.017084479 0.0832797868  0.598946682 0.24668598
4410079500.000000  -0.656599394 0.21826432  0.0772105741 -0.0178196831  0.0770197833 -0.0176970622  0.556127431 0.375602372
4440078000.000000  -0.693647472 0.0335249619  -0.050824973 -0.0616841562  -0.05086193 -0.0616473725  0.463286698 0.493286328
4470076500.000000  -0.67038281 -0.138100405  -0.0396015154 0.0702178934  -0.0395944081 0.0703798276  0.355798599 0.564512163
4500075000.000000  -0.624965197 -0.300575188  0.0749601472 0.00767821897  0.0751359981 0.00746137263  0.243890433 0.620940745
4530073500.000000  -0.528816756 -0.455545002  -0.028497772 -0.0713338934  -0.0287879261 -0.0712297244  0.0943906457 0.660186373
4560072000.000000  -0.391339836 -0.575722712  -0.0560120508 0.0540401514  -0.0557883685 0.0540599072  -0.0549957199 0.653146849
4590070500.000000  -0.256314723 -0.663422087  0.0672519521 0.0274490297  0.0670407391 0.0273098204  -0.179169416 0.614482487
4620069000.000000  -0.0998658106 -0.724125673  -0.00679105316 -0.0750025649  -0.00669395107 -0.0746422814  -0.312327529 0.544314617
4650067500.000000  0.0689050234 -0.726185848  -0.0704036415 0.0345395493  -0.0700461368 0.0342713372  -0.437078062 0.407186326
4680066000.000000  0.232397068 -0.691193933  0.0558200819 0.0425659164  0.0555483447 0.0424807288  -0.525872141 0.265911369
4710064500.000000  0.377221825 -0.637031537  0.0094120331 -0.0715777445  0.0095903537 -0.0713328419  -0.589656695 0.12472166
4740063000.000000  0.51121269 -0.552916234  -0.0712695608 0.0139933159  -0.071223576 0.0138824179  -0.624627294 -0.0479012152
4770061500.000000  0.606743207 -0.439083619  0.0363139788 0.051065172  0.036276509 0.051042099  -0.582536269 -0.209008582
4800060000.000000  0.678628519 -0.31090087  0.0256517283 -0.0632750363  0.0255369717 -0.063176333  -0.503658945 -0.352705861
4830058500.000000  0.73737154 -0.168604783  -0.0731397781 -0.00911573036  -0.0730453542 -0.00897237229  -0.392678552 -0.494770119
4860057000.000000  0.756809212 -0.016599486  0.0116692808 0.0564714957  0.0116623131 0.0563544401  -0.231930342 -0.587641085
4890055500.000000  0.738398772 0.133764848  0.0371943038 -0.0468100545  0.0370402001 -0.04664953  -0.0584939169 -0.613846459
4920054000.000000  0.707009352 0.280934337  -0.0677280051 -0.0260044962  -0.0676533764 -0.0260084948  0.118838127 -0.612495238
4950052500.000000  0.645159035 0.418126927  -0.00798310737 0.05735527  -0.00800986548 0.0571101687  0.307773199 -0.566776966
4980051000.000000  0.554613617 0.533653675  0.0402889319 -0.0272638431  0.0402442707 -0.0270144984  0.461440143 -0.470237417
5010049500.000000  0.45022669 0.615847358  -0.0534095582 -0.0375178599  -0.0531017895 -0.0376411037  0.560882287 -0.367039348
5040048000.000000  0.314076732 0.691105625  -0.0253650034 0.0539274386  -0.0255495254 0.0536857083  0.640474676 -0.220460215
5070046500.000000  0.165754965 0.732460465  0.0454685191 -0.00906526712  0.045478692 -0.00880838382  0.67726296 -0.0496765675
5100045000.000000  0.012888552 0.728223097  -0.0410427209 -0.0460021836  -0.0407133174 -0.0462335523  0.670502378 0.106083251
5130043500.000000  -0.145790971 0.69685896  -0.034936758 0.0491563328  -0.0353465698 0.0489903006  0.658304597 0.266730475
5160042000.000000  -0.309211722 0.636308209  0.0464404661 0.00344653079  0.0465627294 0.00364353514  0.607634762 0.407517354
5190040500.000000  -0.442528428 0.537156791  -0.026623488 -0.051293669  -0.0265695029 -0.0514751006  0.507799129 0.521793932
5220039000.000000  -0.549610418 0.421187809  -0.0450629832 0.0373682268  -0.0451650596 0.0374798106  0.400779746 0.611828014
5250037500.000000  -0.638086312 0.267416559  0.0450093077 0.017157931  0.0450063308 0.0171550871  0.262348766 0.676114198
5280036000.000000  -0.685137812 0.0929801726  -0.011283989 -0.0564226177  -0.0113329106 -0.0564818232  0.100476218 0.707946661
5310034500.000000  -0.684031146 -0.078140747  -0.0527050304 0.0239648138  -0.0528965733 0.0240885099  -0.0471741862 0.703033696
5340033000.000000  -0.647389686 -0.252992738  0.0376089306 0.0270304583  0.037755645 0.0271525869  -0.200286559 0.671581254
5370031500.000000  -0.56794677 -0.417721795  0.00433320336 -0.0531031391  0.00450284863 -0.0532462071  -0.354880619 0.607130712
5400030000.000000  -0.452403113 -0.546805996  -0.0516077269 0.00591212696  -0.0517602519 0.00588546911  -0.480815321 0.502926238
5430028500.000000  -0.322556464 -0.634581462  0.0226350914 0.0348129216  0.0227485466 0.0349706915  -0.572061294 0.380638848
5460027000.000000  -0.163305382 -0.690557651  0.0253315766 -0.0446871966  0.0253908802 -0.0449225238  -0.63137878 0.21571132
5490025500.000000  -0.00146035688 -0.699464157  -0.0454745432 -0.0199636819  -0.0456077215 -0.0199732647  -0.642754816 0.0204776983
5520024000.000000  0.161786602 -0.668174079  0.00481619268 0.0326261852  0.00489443284 0.0326302878  -0.608323347 -0.167363059
5550022500.000000  0.307051521 -0.615489706  0.0340889379 -0.0361043028  0.0341986567 -0.0361813524  -0.545465344 -0.340612288
5580021000.000000  0.431012847 -0.522556187  -0.0424475848 -0.0388767011  -0.0424646682 -0.0390458727  -0.423715313 -0.49079624
5610019500.000000  0.525502225 -0.410515456  -0.0163022947 0.033636374  -0.0164398208 0.0336440079  -0.268208347 -0.585683143
5640018000.000000  0.593778548 -0.288933355  0.0415828442 -0.0200666327  0.0417152018 -0.0201115859  -0.0959924273 -0.631554532
5670016500.000000  0.641610146 -0.151872384  -0.0321303406 -0.0512801379  -0.0321844329 -0.0515536391  0.10035561 -0.641442073
5700015000.000000  0.659615551 -0.0221159474  -0.0314882107 0.025205772  -0.03171878 0.0252020658  0.277958111 -0.600745839
5730013500.000000  0.645749685 0.0981724392  0.0346128448 -0.00549989541  0.0347669089 -0.00539214176  0.42253547 -0.511392445
5760012000.000000  0.611702342 0.219806758  -0.0231449934 -0.0492085463  -0.0233041733 -0.0493780329  0.554729816 -0.398277865
5790010500.000000  0.549886258 0.330554121  -0.0389979623 0.0211935272  -0.0390725643 0.0214059516  0.642459494 -0.251349548
5820009000.000000  0.469419282 0.424190317  0.0301098581 0.007270168  0.0302634849 0.00726399951  0.685568933 -0.0842317462
5850007500.000000  0.378116918 0.499436603  -0.0143466877 -0.0458743572  -0.0142798193 -0.045989839  0.69374546 0.0780125613
5880006000.000000  0.271365246 0.561884133  -0.0432604016 0.0172831398  -0.0433636054 0.0171384472  0.663636612 0.240755251
5910004500.000000  0.161979554 0.595614559  0.0235446823 0.0209273136  0.0235060637 0.020974802  0.589873856 0.386091419
5940003000.000000  0.0445695528 0.598673816  0.000690828499 -0.036507854  0.000836357525 -0.0365529008  0.492074796 0.507956426
5970001500.000000  -0.07766164 0.586778576  -0.038879475 0.00877434648  -0.0389169524 0.00851788715  0.378668806 0.615669754
6000000000.000000  -0.195210193 0.536452087  0.0193907626 0.028938817  0.0192697078 0.0292260151  0.245410913 0.691001165
