! 2-port S-parameters written by miniscope-char acquisition
! instrument: Pico Technology Ltd,PicoVNA-106,10080,5.3.4
! transport: scpi
! endpoint: 127.0.0.1:5025
! demo: false
! calibration: software
# HZ S RI R 50
300000.000000  0.0154813859 0.0113981188  0.984812486 0.0112335971  0.976110127 0.00491291514  0.0160752874 0.00533610193
30298500.000000  -0.00902685372 -0.0893239704  0.849758464 -0.452715598  0.84708349 -0.462638907  -0.0134375693 -0.0867650598
60297000.000000  -0.0969342424 -0.122301755  0.549597393 -0.763584869  0.545546452 -0.766948253  -0.105413124 -0.107795953
90295500.000000  -0.146541954 -0.0702744215  0.165525558 -0.909879125  0.158290622 -0.914092903  -0.150363493 -0.0461871937
120294000.000000  -0.11291259 -0.0101916395  -0.237950797 -0.889429468  -0.245648953 -0.888883064  -0.106943536 0.0123635401
150292500.000000  -0.0255781774 -0.00924109193  -0.598743687 -0.69213764  -0.604077304 -0.690162955  -0.0243979019 -0.00151624213
180291000.000000  0.0346317259 -0.0814265957  -0.833900545 -0.354419224  -0.837519319 -0.352314425  0.0145013591 -0.0821871435
210289500.000000  0.0172722006 -0.16414559  -0.888279355 0.0393113703  -0.890438729 0.0438373849  -0.0261279525 -0.154541065
240288000.000000  -0.0470065129 -0.18175199  -0.777638165 0.405793866  -0.778230169 0.410936579  -0.0965491031 -0.151412815
270286500.000000  -0.0743994546 -0.119445374  -0.537073573 0.6929339  -0.534275153 0.696321806  -0.112668106 -0.0736889937
300285000.000000  -0.0238401796 -0.0520653723  -0.182560494 0.860429246  -0.178694752 0.864477968  -0.0392694149 -0.0121663973
330283500.000000  0.0714375305 -0.0485897148  0.211630122 0.847628559  0.21587682 0.849131401  0.0648859877 -0.0311401964
360282000.000000  0.126792907 -0.109620044  0.546662521 0.663042551  0.550601793 0.660973658  0.109565889 -0.115853674
390280500.000000  0.103545052 -0.165211709  0.76231105 0.367219741  0.76774937 0.364869023  0.0644950159 -0.175549611
420279000.000000  0.0451728707 -0.144771155  0.851063847 0.0136780549  0.852720576 0.00997326187  -0.0107137783 -0.144221462
450277500.000000  0.0303358524 -0.0578312401  0.781826614 -0.360691431  0.781334861 -0.36561296  -0.032816493 -0.0319067497
480276000.000000  0.101633123 0.0121829674  0.537494729 -0.655041306  0.535716619 -0.659547333  0.0516242909 0.0557240789
510274500.000000  0.178050436 0.00959106873  0.202411602 -0.807564001  0.197036792 -0.809897339  0.15336319 0.0478420864
540273000.000000  0.185481766 -0.042450732  -0.151534644 -0.817277792  -0.155583288 -0.819350478  0.178081997 -0.0201916503
570271500.000000  0.131140779 -0.0514378469  -0.482374275 -0.675496959  -0.48687988 -0.674050408  0.101441199 -0.0629382102
600270000.000000  0.0647550522 0.0173019118  -0.729520954 -0.399697065  -0.733460064 -0.395922759  -0.00471045347 -0.00882570543
630268500.000000  0.0735650996 0.118068462  -0.81957599 -0.041974528  -0.821747764 -0.0371898746  -0.0364081493 0.11150651
660267000.000000  0.134217268 0.15478694  -0.748067857 0.300458487  -0.74785621 0.305516786  0.020459297 0.186979966
690265500.000000  0.160105065 0.110803837  -0.555427586 0.580993195  -0.553473968 0.585926454  0.0794316549 0.159075063
720264000.000000  0.0931577548 0.0551030999  -0.259406981 0.769023144  -0.255167667 0.772135153  0.0539072959 0.0666266382
750262500.000000  -0.0184874413 0.0777577966  0.109426735 0.811464428  0.115193825 0.813007742  -0.0618520572 0.0115229902
780261000.000000  -0.0904529921 0.171318991  0.44123226 0.671081111  0.445746469 0.669959338  -0.175723788 0.0561520706
810259500.000000  -0.0515226148 0.239289964  0.66041556 0.414895005  0.665302062 0.410446197  -0.206321056 0.137074545
840258000.000000  0.0133771401 0.198769312  0.776821488 0.109902693  0.779332064 0.105024552  -0.140009488 0.151615756
870256500.000000  -0.000231115459 0.0743908482  0.760998479 -0.240431708  0.760767165 -0.246497314  -0.0787482973 0.0472024261
900255000.000000  -0.135257383 -0.010757333  0.565895379 -0.548517779  0.563710973 -0.553572667  -0.118613437 -0.101745245
930253500.000000  -0.261733142 0.0252014376  0.268752767 -0.713193062  0.263528024 -0.716217353  -0.231260987 -0.160392845
960252000.000000  -0.274428962 0.111448946  -0.0402021731 -0.747436712  -0.0451961503 -0.749730732  -0.292320716 -0.123350564
990250500.000000  -0.176139254 0.129407709  -0.34792009 -0.676662144  -0.352202374 -0.676190718  -0.235567516 -0.0637036509
1020249000.000000  -0.0681116034 0.00475198903  -0.62174621 -0.461797606  -0.625796497 -0.459346167  -0.086570567 -0.0872170401
1050247500.000000  -0.0957811666 -0.182632383  -0.744298477 -0.126718714  -0.748297249 -0.121740057  0.0182303818 -0.228735454
1080246000.000000  -0.222653016 -0.257586962  -0.696784706 0.189094274  -0.696412468 0.194461863  -0.00900366223 -0.355112463
1110244500.000000  -0.293270629 -0.196330611  -0.560152592 0.442306578  -0.55814892 0.447562575  -0.0834082602 -0.357368971
1140243000.000000  -0.223502047 -0.0920250729  -0.336041806 0.653615297  -0.333089596 0.657376105  -0.0905657912 -0.244460268
1170241500.000000  -0.0312296588 -0.0921262585  -0.000438062747 0.751423741  0.00461077538 0.754434366  0.0475264978 -0.11621988
1200240000.000000  0.104727311 -0.244332436  0.333641359 0.646673846  0.338260041 0.646987887  0.241757302 -0.122176212
1230238500.000000  0.0793827633 -0.384246929  0.545738807 0.430258538  0.54828109 0.428584635  0.321371464 -0.221538826
1260237000.000000  -0.0108899817 -0.388976734  0.668320595 0.185894188  0.670529412 0.182901276  0.261781621 -0.276007172
1290235500.000000  -0.0340575004 -0.255299027  0.712191502 -0.115903851  0.713549628 -0.120348093  0.140138205 -0.193361214
1320234000.000000  0.100926556 -0.110143138  0.584950803 -0.443818799  0.583894115 -0.447756022  0.107703842 0.0232697315
1350232500.000000  0.284722592 -0.112063556  0.306030454 -0.636783252  0.30215084 -0.639920954  0.225777787 0.187936134
1380231000.000000  0.352095844 -0.199567433  0.0219200545 -0.676883576  0.0170904466 -0.678399065  0.342681083 0.193553179
1410229500.000000  0.289982528 -0.238686624  -0.243234675 -0.640599906  -0.248771985 -0.639128259  0.336702306 0.106307898
1440228000.000000  0.183193595 -0.137014225  -0.514996961 -0.494961279  -0.51952491 -0.492177033  0.170752567 0.0425195972
1470226500.000000  0.193793745 0.0647865487  -0.687439835 -0.196645538  -0.689816084 -0.191765268  -0.047167505 0.142473257
1500225000.000000  0.317378804 0.168950515  -0.670643176 0.115138512  -0.670675552 0.119937359  -0.116387475 0.321790797
1530223500.000000  0.387975472 0.138738433  -0.559477817 0.354125183  -0.558367713 0.357492392  -0.0595877019 0.394907308
1560222000.000000  0.323239081 0.0724682803  -0.387358271 0.562254056  -0.38501915 0.565274711  0.00155544464 0.307703737
1590220500.000000  0.140352392 0.101523904  -0.0978397219 0.701016726  -0.094337285 0.702864517  -0.0617151656 0.112547404
1620219000.000000  0.0187326416 0.271678505  0.232374241 0.649426321  0.235927412 0.648317544  -0.264344276 -0.00587805296
1650217500.000000  0.0479482919 0.402447637  0.452428556 0.469579359  0.45586913 0.468854941  -0.414809931 0.021724946
1680216000.000000  0.112982211 0.386696364  0.592340534 0.265303441  0.595153974 0.263628665  -0.414839215 0.0738168405
1710214500.000000  0.0878409946 0.238749401  0.679435636 -0.00224619299  0.680944508 -0.00625963853  -0.291229514 0.0396083666
1740213000.000000  -0.115096323 0.108139074  0.605918173 -0.325801392  0.60554835 -0.329814402  -0.174537686 -0.148098839
1770211500.000000  -0.333210219 0.152535231  0.368933492 -0.529304748  0.366457328 -0.532861326  -0.20160157 -0.354411398
1800210000.000000  -0.385158894 0.260689114  0.130940593 -0.594303908  0.126980734 -0.597140155  -0.277390268 -0.422585963
1830208500.000000  -0.296091735 0.28655933  -0.0997712513 -0.612684281  -0.105123687 -0.611886869  -0.282137801 -0.36949732
1860207000.000000  -0.163054282 0.131335043  -0.381262093 -0.53539632  -0.385767401 -0.5333929  -0.135960538 -0.273493186
1890205500.000000  -0.204326597 -0.152843034  -0.587315921 -0.267568435  -0.592166032 -0.263662848  0.11633213 -0.308739961
1920204000.000000  -0.387226422 -0.279808488  -0.586796167 0.016517148  -0.587264601 0.0205123607  0.239050498 -0.452624186
1950202500.000000  -0.485540331 -0.240881735  -0.516483489 0.214791195  -0.515180788 0.218184165  0.223960647 -0.524371965
1980201000.000000  -0.422285309 -0.144860591  -0.421099424 0.410520019  -0.420033732 0.413365922  0.160600641 -0.451114281
2010199500.000000  -0.178185835 -0.142029715  -0.191481573 0.604768348  -0.188986659 0.606373571  0.181343621 -0.218878157
2040198000.000000  0.016555659 -0.359271905  0.14082939 0.590321547  0.142235571 0.590849047  0.392411522 -0.0360788229
2070196500.000000  0.00235093028 -0.546485661  0.337038449 0.431580492  0.338087177 0.431426531  0.561550879 -0.0396721537
2100195000.000000  -0.0634782866 -0.571606447  0.454446978 0.284011836  0.455935535 0.283831291  0.570253392 -0.0911012581
2130193500.000000  -0.0700756512 -0.447548821  0.572771324 0.0937374361  0.573712108 0.0924829067  0.424308346 -0.0900330841
2160192000.000000  0.107849649 -0.274593789  0.578788008 -0.215852918  0.578875486 -0.217393062  0.21376985 0.0973040575
2190190500.000000  0.361206923 -0.281994279  0.369537014 -0.441129599  0.369026406 -0.443187843  0.18929469 0.376379693
2220189000.000000  0.458559806 -0.369241054  0.157960225 -0.50387374  0.156297955 -0.505596768  0.270480425 0.492999808
2250187500.000000  0.422735647 -0.387902734  -0.0240294372 -0.533193556  -0.0264647078 -0.534602066  0.300932391 0.449537592
2280186000.000000  0.327872382 -0.268094711  -0.266130886 -0.519775149  -0.269813553 -0.519707904  0.191532021 0.289014561
2310184500.000000  0.350542035 -0.0146103268  -0.509400375 -0.31859569  -0.513131161 -0.31700293  -0.119349776 0.201446084
2340183000.000000  0.507570199 0.125642198  -0.547240768 -0.0402804302  -0.548400377 -0.0380536255  -0.361596701 0.31270029
2370181500.000000  0.58577194 0.12531345  -0.494686363 0.147878013  -0.493844902 0.150714673  -0.406290159 0.405236595
2400180000.000000  0.524779939 0.0896312036  -0.432333827 0.326189565  -0.431596204 0.328782922  -0.332840732 0.372572848
2430178500.000000  0.319719262 0.140003193  -0.261309515 0.528531573  -0.260204734 0.529826022  -0.244502906 0.142257082
2460177000.000000  0.163797031 0.362818434  0.0365109484 0.566703294  0.0384063619 0.567096119  -0.344562408 -0.164260578
2490175500.000000  0.175929684 0.530049289  0.23340894 0.450902207  0.235288579 0.450684624  -0.50080103 -0.286461733
2520174000.000000  0.211671303 0.544125382  0.358073723 0.339512695  0.358882552 0.33908932  -0.539105695 -0.287097282
2550172500.000000  0.167276676 0.418988219  0.498078821 0.194175203  0.499092674 0.192665563  -0.422390227 -0.249317619
2580171000.000000  -0.0782084055 0.269921993  0.554941793 -0.088689526  0.555812706 -0.091006935  -0.156712646 -0.321941758
2610169500.000000  -0.350782814 0.330139158  0.394385565 -0.313273139  0.393944613 -0.314920996  -0.00122451447 -0.541235583
2640168000.000000  -0.433912065 0.422393118  0.231891044 -0.387483216  0.231418958 -0.389275341  0.0182986332 -0.659074609
2670166500.000000  -0.392643407 0.418464522  0.0987208782 -0.451018585  0.0977781346 -0.452914126  0.0240857438 -0.637342381
2700165000.000000  -0.283186675 0.250954311  -0.114871101 -0.504460688  -0.1169149 -0.505451462  0.0871626191 -0.475586162
2730163500.000000  -0.324722063 -0.0846186031  -0.376799223 -0.361741611  -0.378626755 -0.361851208  0.329772634 -0.310150764
2760162000.000000  -0.524477062 -0.253650963  -0.434935946 -0.123627918  -0.43647688 -0.123960814  0.55126683 -0.325618178
2790160500.000000  -0.61388919 -0.263803032  -0.415668091 0.0252929445  -0.416086175 0.0262558777  0.613217252 -0.357334566
2820159000.000000  -0.556835472 -0.222549295  -0.409664611 0.1701714  -0.40994115 0.17191684  0.55744198 -0.321477839
2850157500.000000  -0.318462365 -0.226824933  -0.32163122 0.388770634  -0.321150866 0.390151689  0.431062477 -0.132841192
2880156000.000000  -0.075765236 -0.45698099  -0.0503639302 0.485216757  -0.0481783702 0.486062928  0.462599628 0.183320941
2910154500.000000  -0.0459116227 -0.65864729  0.135074796 0.39711159  0.138193207 0.396209248  0.590579335 0.33075539
2940153000.000000  -0.0599247267 -0.69696153  0.238061646 0.321656415  0.2407093 0.319330843  0.618242471 0.349518531
2970151500.000000  -0.0375351033 -0.60134379  0.372806425 0.241384336  0.374385043 0.23749171  0.509279201 0.303290111
3000150000.000000  0.140015791 -0.421956456  0.49629635 0.0166293816  0.495991802 0.0121243806  0.206480428 0.316763188
3030148500.000000  0.418531445 -0.40669459  0.390063151 -0.231460973  0.387501461 -0.234323374  -0.0362778898 0.537707382
3060147000.000000  0.538922685 -0.468119914  0.240676377 -0.314866009  0.239057612 -0.316879875  -0.090577997 0.681456173
3090145500.000000  0.543296713 -0.461278889  0.136272937 -0.373605017  0.134264383 -0.375786815  -0.098243785 0.669550354
3120144000.000000  0.47718687 -0.338033069  -0.0225999749 -0.452308934  -0.027235116 -0.453778161  -0.112709065 0.480920983
3150142500.000000  0.492527134 -0.0672991234  -0.280584104 -0.385311177  -0.285613497 -0.383679296  -0.309937664 0.171613916
3180141000.000000  0.644637895 0.0953408861  -0.375908292 -0.172654458  -0.378763904 -0.169159301  -0.591019317 0.0648334193
3210139500.000000  0.713407001 0.134220148  -0.373262886 -0.0350232341  -0.374602846 -0.0306687489  -0.698615289 0.0555621681
3240138000.000000  0.662759049 0.142456946  -0.388536942 0.0872450424  -0.388034905 0.0920223189  -0.644902733 0.0314375911
3270136500.000000  0.470893326 0.20094384  -0.355621424 0.290460407  -0.352546452 0.294148887  -0.426323696 -0.0865918223
3300135000.000000  0.292789359 0.433861671  -0.133850559 0.428751425  -0.130285002 0.43009633  -0.251849257 -0.406139784
3330133500.000000  0.275448941 0.618540205  0.0491540471 0.381625176  0.0514420088 0.381098555  -0.25495154 -0.63504597
3360132000.000000  0.266604232 0.660437491  0.149686758 0.332393907  0.150831357 0.331479198  -0.246642719 -0.693001168
3390130500.000000  0.203963977 0.578589774  0.277348044 0.290781741  0.277642195 0.289995686  -0.173081 -0.624411166
3420129000.000000  -0.0230758753 0.42398281  0.431836507 0.12315308  0.431938887 0.122809534  0.0575439542 -0.487610788
3450127500.000000  -0.331439697 0.444254651  0.391780353 -0.116171947  0.391268671 -0.116677245  0.354841455 -0.510425295
3480126000.000000  -0.466497707 0.512341601  0.279639219 -0.220415471  0.279094486 -0.220320961  0.491112368 -0.570327306
3510124500.000000  -0.483315029 0.493527388  0.201902808 -0.292802424  0.201597399 -0.292694264  0.527510266 -0.545989674
3540123000.000000  -0.412768644 0.341916944  0.0828956117 -0.397723383  0.0828300583 -0.398183108  0.504558016 -0.404407431
3570121500.000000  -0.420777599 0.000960756477  -0.15860953 -0.396267282  -0.159056209 -0.396265094  0.560307536 -0.123892182
3600120000.000000  -0.589851754 -0.225538048  -0.283547133 -0.228737749  -0.28364627 -0.228709543  0.721577496 0.0500097494
3630118500.000000  -0.664992736 -0.296625542  -0.306426632 -0.111132737  -0.307061479 -0.111588507  0.785504541 0.117499018
3660117000.000000  -0.616254035 -0.311122228  -0.344317315 -0.0134121178  -0.346297076 -0.0136740784  0.736554081 0.161199163
3690115500.000000  -0.403216567 -0.327099846  -0.366239504 0.166612257  -0.368864416 0.168769674  0.548744619 0.2406449
3720114000.000000  -0.130317129 -0.524887882  -0.201012648 0.34258091  -0.201423067 0.346782523  0.350598126 0.490209682
3750112500.000000  -0.04013423 -0.723347685  -0.0287374845 0.333114679  -0.0260636555 0.336353678  0.306932552 0.692196353
3780111000.000000  0.00247247413 -0.77248568  0.0637680542 0.305340052  0.0681056752 0.306497962  0.266097853 0.745864025
3810109500.000000  0.0563252854 -0.699043836  0.17620331 0.296662873  0.18043481 0.295166091  0.182500391 0.672744307
3840108000.000000  0.211179577 -0.517345352  0.348052628 0.188955346  0.350646374 0.185384924  -0.0474709128 0.494248998
3870106500.000000  0.480939428 -0.448115512  0.359290476 -0.0366702847  0.35943272 -0.041095216  -0.390408402 0.46908526
3900105000.000000  0.621082824 -0.459327866  0.27287793 -0.14430792  0.27123721 -0.146988816  -0.555663061 0.507089953
3930103500.000000  0.656887085 -0.422713636  0.220383444 -0.213290053  0.218439513 -0.214890861  -0.591435733 0.462676826
3960102000.000000  0.617798778 -0.304929611  0.146489415 -0.321765162  0.144928935 -0.323191599  -0.516341404 0.306779502
3990100500.000000  0.604915323 -0.0524278477  -0.0588147183 -0.380456873  -0.0612311936 -0.38039099  -0.44935603 -0.0482106459
4020099000.000000  0.714682973 0.144626018  -0.209631333 -0.256671636  -0.210759105 -0.256118374  -0.557307934 -0.347336259
4050097500.000000  0.762890471 0.22808032  -0.248494824 -0.153463845  -0.249704088 -0.154073234  -0.599926533 -0.468773592
4080096000.000000  0.717107425 0.274944948  -0.295843566 -0.0773518114  -0.29888485 -0.0773219881  -0.527576322 -0.499648472
4110094500.000000  0.551434888 0.332899927  -0.350304092 0.0695562833  -0.353090506 0.0726308811  -0.300809805 -0.467842037
4140093000.000000  0.358428147 0.529952774  -0.245538662 0.256280691  -0.245044402 0.260587696  0.0513995854 -0.564706849
4170091500.000000  0.295988887 0.706001222  -0.0929868848 0.284838328  -0.08968768 0.287030738  0.243399023 -0.716178229
4200090000.000000  0.240471648 0.762018173  -0.00681548783 0.279644178  -0.0031876861 0.279494332  0.336398074 -0.740846553
4230088500.000000  0.148439721 0.712512787  0.0910640653 0.295254485  0.0937894009 0.293323277  0.385297551 -0.64365545
4260087000.000000  -0.0621891224 0.5751501  0.260309128 0.238369677  0.26212518 0.235322761  0.467488183 -0.392962832
4290085500.000000  -0.358987431 0.554900205  0.31576601 0.0481245157  0.315299316 0.0446765467  0.692269544 -0.177047147
4320084000.000000  -0.518617852 0.57628214  0.264277166 -0.0599682114  0.262806656 -0.0621578488  0.82930152 -0.0845061277
4350082500.000000  -0.579645202 0.524203887  0.235400134 -0.128438901  0.233436884 -0.129966211  0.843425338 0.000380265957
4380081000.000000  -0.555051848 0.371624609  0.198633933 -0.236916366  0.196217943 -0.238068141  0.743279371 0.105003185
4410079500.000000  -0.549919552 0.0527830167  0.0346416608 -0.332314617  0.0316564949 -0.331948832  0.577128022 0.32620966
4440078000.000000  -0.678708493 -0.200947589  -0.117921403 -0.255461406  -0.120046051 -0.254475622  0.535243181 0.566337418
4470076500.000000  -0.723990891 -0.31985686  -0.16811593 -0.17831802  -0.170096262 -0.177133841  0.501767125 0.677746528
4500075000.000000  -0.659892041 -0.386055631  -0.220948105 -0.129068693  -0.223193059 -0.127002824  0.416343343 0.703357895
4530073500.000000  -0.467092633 -0.426335652  -0.302043707 -0.0244561176  -0.303054923 -0.0206781065  0.239105249 0.651544874
4560072000.000000  -0.196652132 -0.586926981  -0.260789035 0.161462546  -0.259222395 0.164400834  -0.0645932413 0.662779334
4590070500.000000  -0.0675469765 -0.762948188  -0.132561407 0.218407011  -0.130209436 0.219478885  -0.267537634 0.750032502
4620069000.000000  0.0183467271 -0.813605922  -0.0601132697 0.227370501  -0.0579001487 0.227351138  -0.376120792 0.746424965
4650067500.000000  0.107502248 -0.75879373  0.0125786279 0.259447809  0.0146675758 0.258625196  -0.432473389 0.640488191
4680066000.000000  0.255385155 -0.593352741  0.16115511 0.255784566  0.162916578 0.253917802  -0.487066877 0.390351331
4710064500.000000  0.508853324 -0.482991187  0.256470311 0.109129455  0.25670697 0.107019588  -0.673361646 0.129542579
4740063000.000000  0.664532954 -0.454275269  0.235283475 0.00232379801  0.235206452 0.000702666066  -0.80232165 -0.00815744493
4770061500.000000  0.722243233 -0.394065225  0.22260693 -0.0604391118  0.222174067 -0.0621387373  -0.806344073 -0.122724217
4800060000.000000  0.706503169 -0.274473874  0.215949434 -0.154498345  0.214544435 -0.156425544  -0.680185945 -0.229466894
4830058500.000000  0.683812229 -0.0415686683  0.10758146 -0.272402944  0.10520877 -0.273317464  -0.413903648 -0.419423143
4860057000.000000  0.75794509 0.170605014  -0.0430058356 -0.248528484  -0.0449843491 -0.247876568  -0.232000876 -0.688566673
4890055500.000000  0.789890471 0.284005571  -0.105793697 -0.19052155  -0.107374905 -0.189247679  -0.119208858 -0.820258515
4920054000.000000  0.744310386 0.357910016  -0.159524592 -0.156559395  -0.16058366 -0.155012486  0.00259222499 -0.817943998
4950052500.000000  0.603007338 0.418416981  -0.246401663 -0.0859400897  -0.246621463 -0.0841288778  0.157604293 -0.674832189
4980051000.000000  0.405090187 0.569623299  -0.251507101 0.0780819512  -0.25062591 0.0794880154  0.448512365 -0.492411797
5010049500.000000  0.305203917 0.726702459  -0.153094781 0.153013918  -0.152045423 0.153498181  0.689053463 -0.433603579
5040048000.000000  0.221892298 0.790200059  -0.0937053294 0.172865579  -0.0927529055 0.173275305  0.78929299 -0.357261081
5070046500.000000  0.121366073 0.771027693  -0.0438642297 0.211099299  -0.042890977 0.211453858  0.792711038 -0.235214046
5100045000.000000  -0.039095237 0.655613617  0.0687857437 0.245173103  0.0697155032 0.245047751  0.72045234 -0.0326966962
5130043500.000000  -0.302375124 0.569148713  0.187611996 0.161582574  0.188681027 0.161057076  0.70284266 0.241851226
5160042000.000000  -0.493884439 0.550757091  0.204365966 0.0636951297  0.205362449 0.0629127479  0.718670817 0.427946358
5190040500.000000  -0.590702976 0.496078618  0.205883017 0.00310738185  0.206554388 0.0018597761  0.67369248 0.539020286
5220039000.000000  -0.609865073 0.375288339  0.215445741 -0.0722103643  0.215452377 -0.0740965437  0.554399994 0.59631751
5250037500.000000  -0.602415662 0.138009327  0.161408872 -0.181614234  0.160246877 -0.183446008  0.337535704 0.652499127
5280036000.000000  -0.667672903 -0.108999687  0.0460030531 -0.206592881  0.0444706607 -0.207569442  0.133056826 0.7657978
5310034500.000000  -0.695733482 -0.269587508  -0.0222844372 -0.183203303  -0.0236309863 -0.18339465  -0.00522806019 0.829168573
5340033000.000000  -0.643930518 -0.377743576  -0.0782190981 -0.169784517  -0.0794733332 -0.169641364  -0.122234223 0.813283295
5370031500.000000  -0.49263023 -0.442057346  -0.163178075 -0.134019564  -0.164392807 -0.133344526  -0.242793984 0.700651324
5400030000.000000  -0.246437705 -0.557607575  -0.210713615 -0.0139178694  -0.211449177 -0.0125621655  -0.446554236 0.533435253
5430028500.000000  -0.0734878252 -0.70386857  -0.163809086 0.071130374  -0.163767969 0.0727006725  -0.642863302 0.428272069
5460027000.000000  0.047951736 -0.764052488  -0.129445426 0.109783031  -0.129055104 0.111241463  -0.744164963 0.316721963
5490025500.000000  0.156144254 -0.733101629  -0.103954316 0.164538733  -0.102985959 0.166060689  -0.754982949 0.178518199
5520024000.000000  0.287367814 -0.6041578  -0.0222407038 0.235136573  -0.0201235028 0.236247342  -0.656819181 -0.0164768756
5550022500.000000  0.492890135 -0.4677382  0.108410781 0.211766447  0.110833619 0.211372625  -0.549019474 -0.312407192
5580021000.000000  0.65474036 -0.398772834  0.161124249 0.132954137  0.162642277 0.131825036  -0.498541795 -0.552925692
5610019500.000000  0.730838341 -0.326019255  0.181578901 0.0795121107  0.182543214 0.0779835117  -0.414817675 -0.67946836
5640018000.000000  0.73723423 -0.223583808  0.210649774 0.0200453119  0.211366751 0.0180857006  -0.271657721 -0.698410811
5670016500.000000  0.707421376 -0.0558579131  0.199763663 -0.0854565292  0.199648381 -0.0876521917  -0.0187447062 -0.647720461
5700015000.000000  0.722509783 0.122916222  0.113413056 -0.136753446  0.112441304 -0.138401988  0.257190061 -0.658756916
5730013500.000000  0.725177079 0.241071892  0.0573081779 -0.134393491  0.0561988794 -0.135364717  0.430408155 -0.647560089
5760012000.000000  0.679389959 0.32479077  0.0189669257 -0.139622342  0.0175632796 -0.140349095  0.53534573 -0.564748288
5790010500.000000  0.574534575 0.388458803  -0.0464782597 -0.14319482  -0.0479758349 -0.143123903  0.583378293 -0.399185196
5820009000.000000  0.417304563 0.490083847  -0.109882107 -0.0785956446  -0.110835153 -0.0777012215  0.652191633 -0.14777116
5850007500.000000  0.309719236 0.609312063  -0.102285216 -0.0155528773  -0.102475015 -0.0146162509  0.746636015 0.0463182078
5880006000.000000  0.228790932 0.670982175  -0.0949945516 0.0144751294  -0.0949912933 0.0152463129  0.768285244 0.181407402
5910004500.000000  0.147547744 0.671996454  -0.0983063262 0.0566782682  -0.098036327 0.0574173336  0.7157793 0.283349718
5940003000.000000  0.0369111508 0.600277229  -0.0693188645 0.128790914  -0.0685507148 0.129431304  0.576909694 0.371141373
5970001500.000000  -0.152275345 0.507095839  0.0260741166 0.157425331  0.0269684474 0.157462769  0.38906798 0.515372433
6000000000.000000  -0.337014102 0.467966122  0.0888135439 0.11944011  0.0894523775 0.11943573  0.25518901 0.667986425
