! 2-port S-parameters written by miniscope-char acquisition
! instrument: Pico Technology Ltd,PicoVNA-106,10080,5.3.4
! transport: scpi
! endpoint: 127.0.0.1:5025
! demo: false
! calibration: software
# HZ S RI R 50
300000.000000  0.0196397801 0.0114957601  0.980661172 0.0076033212  0.971926501 0.00362570661  0.0211959855 0.00524149678
30298500.000000  -0.0405715321 -0.109964465  0.695155446 -0.64169445  0.690909716 -0.649765986  -0.0446041442 -0.103242258
60297000.000000  -0.141975519 -0.0679898435  0.121232532 -0.908831274  0.116753635 -0.909890275  -0.141401954 -0.0476212148
90295500.000000  -0.0847637539 0.00696882303  -0.474452484 -0.771864663  -0.482435216 -0.771000733  -0.0746729299 0.0263985223
120294000.000000  0.00425777913 -0.0572427238  -0.851553197 -0.288507791  -0.85392811 -0.2818038  0.00645349666 -0.0496458927
150292500.000000  -0.0346220486 -0.148589138  -0.817978535 0.314770064  -0.818301424 0.318788053  -0.053225821 -0.130575814
180291000.000000  -0.101935036 -0.113995716  -0.435449278 0.745870494  -0.434441785 0.749436944  -0.120362384 -0.0724185155
210289500.000000  -0.0503996119 -0.0423241743  0.132562814 0.849994341  0.136257289 0.851627557  -0.0481422757 0.0016806078
240288000.000000  0.0459125208 -0.086535814  0.634617209 0.565890764  0.639444917 0.565416322  0.0500289915 -0.0652853019
270286500.000000  0.0248770337 -0.163947754  0.833274503 0.0402333238  0.834593493 0.0370072631  0.000860175075 -0.152059906
300285000.000000  -0.0295565385 -0.131875304  0.673533155 -0.485663689  0.6725808 -0.48977249  -0.0734717542 -0.0955910093
330283500.000000  0.0187815449 -0.0591994518  0.213130887 -0.80127832  0.211297066 -0.804254592  -0.00710360975 -0.00348769007
360282000.000000  0.10244333 -0.0820213649  -0.337683497 -0.744276689  -0.341203688 -0.74420869  0.0956838812 -0.050556602
390280500.000000  0.091434547 -0.136789138  -0.714973176 -0.366070985  -0.719698267 -0.364361092  0.0558782796 -0.133600274
420279000.000000  0.0449268218 -0.0956249148  -0.790230993 0.160777684  -0.791136808 0.163976568  -0.0327366063 -0.0742408427
450277500.000000  0.0860392811 -0.0193288335  -0.507961401 0.627821265  -0.506266298 0.631535  0.0176124989 0.050054145
480276000.000000  0.148456924 -0.0350965849  -0.00353891737 0.788791814  0.000247485713 0.789869012  0.125612933 0.0200806978
510274500.000000  0.125190632 -0.0608594163  0.484421694 0.614550341  0.488612042 0.613332569  0.0895880479 -0.0681210102
540273000.000000  0.0851772982 0.00139158883  0.767588932 0.174139682  0.770627743 0.171387275  -0.0168977991 -0.0218695603
570271500.000000  0.121148028 0.0593504529  0.692933522 -0.345172343  0.69272062 -0.348913622  0.00230184831 0.095952748
600270000.000000  0.155854952 0.0402080081  0.324047094 -0.693823156  0.320833702 -0.696845634  0.0915526503 0.0837155872
630268500.000000  0.100825908 0.0229979152  -0.179721237 -0.743934164  -0.184023203 -0.744393712  0.0522525051 -0.00931670892
660267000.000000  0.0515418325 0.0933960421  -0.603939521 -0.459537031  -0.607868149 -0.457139768  -0.0722528676 0.0204527444
690265500.000000  0.0879214342 0.142369985  -0.746929062 0.0178440046  -0.748642496 0.0216115046  -0.0733267746 0.126987145
720264000.000000  0.0944310482 0.0956221548  -0.574914256 0.474845483  -0.573579228 0.47914504  0.0069397557 0.108911078
750262500.000000  0.00504038706 0.0800005541  -0.144079246 0.738828455  -0.13986465 0.741677545  -0.0259268003 5.03536507e-05
780261000.000000  -0.0583548969 0.152490266  0.349217104 0.65407055  0.352857929 0.65371821  -0.144800025 0.000969006855
810259500.000000  -0.00814637407 0.182626398  0.664339866 0.29067219  0.668128675 0.286676029  -0.155600624 0.0827405491
840258000.000000  -0.00237569395 0.0892413415  0.705240817 -0.188161192  0.705240642 -0.192799345  -0.065800008 0.0442811435
870256500.000000  -0.121425544 0.036020482  0.421572041 -0.590907192  0.418911696 -0.59495908  -0.0976449158 -0.0908307971
900255000.000000  -0.184456953 0.11256987  -0.035763204 -0.708429591  -0.0399153697 -0.709562499  -0.207014548 -0.0964876228
930253500.000000  -0.113793291 0.127657875  -0.463237457 -0.536910656  -0.46819161 -0.53483116  -0.179002467 -0.0165669416
960252000.000000  -0.0882514412 0.00112426044  -0.70218884 -0.1204299  -0.704668541 -0.116535264  -0.0542102363 -0.0652288026
990250500.000000  -0.200324933 -0.0773106803  -0.605266252 0.342775422  -0.604626082 0.34667142  -0.0551391932 -0.206681471
1020249000.000000  -0.254128933 -0.0133033347  -0.267966828 0.630107387  -0.265200566 0.633108495  -0.144622297 -0.211233724
1050247500.000000  -0.143931575 0.00698391073  0.184503529 0.668785709  0.189090018 0.669715064  -0.0974457048 -0.103733279
1080246000.000000  -0.0708248557 -0.14268773  0.566958296 0.387724103  0.571513701 0.384190949  0.0673811388 -0.13714258
1110244500.000000  -0.158192234 -0.237224337  0.661789904 -0.0481871752  0.662864586 -0.0525035994  0.0751741803 -0.270402107
1140243000.000000  -0.193128039 -0.168712934  0.497964391 -0.440994456  0.496209904 -0.44485763  -0.0237761847 -0.245189301
1170241500.000000  -0.0600807731 -0.131359084  0.104571398 -0.670826893  0.1003892 -0.674628208  0.0243857772 -0.0845570021
1200240000.000000  0.0401810114 -0.254467914  -0.342661056 -0.566133696  -0.346238513 -0.566200137  0.204910404 -0.0739337736
1230238500.000000  -0.0192191406 -0.323618961  -0.600925049 -0.235475533  -0.602712689 -0.234065951  0.223712105 -0.188040585
1260237000.000000  -0.0408333504 -0.226141638  -0.631224343 0.187330988  -0.631969322 0.189592048  0.0956367449 -0.155531987
1290235500.000000  0.105226151 -0.152108785  -0.358514781 0.553828028  -0.357536773 0.556631749  0.103628461 0.0362956274
1320234000.000000  0.204681378 -0.227428694  0.0676484108 0.630519458  0.0707798431 0.631437794  0.252461644 0.071249677
1350232500.000000  0.163672845 -0.253695067  0.433877454 0.461077587  0.437708987 0.45925032  0.243004328 -0.0366997911
1380231000.000000  0.14850583 -0.140741925  0.643470637 0.082734984  0.645049628 0.0784714408  0.0563165732 -0.0122775141
1410229500.000000  0.262368998 -0.0581175935  0.533947185 -0.347772595  0.531181279 -0.352117647  0.00442706826 0.189487252
1440228000.000000  0.314267267 -0.0994048578  0.204833511 -0.585754061  0.200813028 -0.587978431  0.126132045 0.24067697
1470226500.000000  0.232399996 -0.0817086344  -0.200743071 -0.599770309  -0.204733787 -0.599122661  0.118773182 0.0990013277
1500225000.000000  0.203135343 0.0673888509  -0.542629186 -0.332018747  -0.545124985 -0.328799158  -0.0869302509 0.0664970578
1530223500.000000  0.281156975 0.138460251  -0.611033697 0.0758497469  -0.611543937 0.0784878662  -0.161636257 0.208212472
1560222000.000000  0.269856095 0.10169278  -0.44315882 0.429867906  -0.441981143 0.432437062  -0.0577276437 0.215274511
1590220500.000000  0.14255084 0.142646258  -0.0690441539 0.623456527  -0.0664729037 0.624795454  -0.0613724271 0.028438233
1620219000.000000  0.106738131 0.274488144  0.333927331 0.507951945  0.336816718 0.507073494  -0.244380378 -0.0501975619
1650217500.000000  0.15246202 0.283216044  0.561695829 0.201207855  0.563652849 0.199682864  -0.301747458 0.0385755715
1680216000.000000  0.0788435599 0.185500269  0.581191283 -0.194752867  0.581848347 -0.197103202  -0.174889279 0.0249847756
1710214500.000000  -0.105139505 0.204766962  0.31368951 -0.520802782  0.311569968 -0.52334025  -0.134486038 -0.164330461
1740213000.000000  -0.149016849 0.3047851  -0.0687975423 -0.580340151  -0.071586926 -0.581511903  -0.237431861 -0.24114237
1770211500.000000  -0.091541689 0.256771956  -0.408977048 -0.427555475  -0.41206013 -0.426026553  -0.224044692 -0.164573691
1800210000.000000  -0.169660197 0.0865127926  -0.593776067 -0.0591685859  -0.596039108 -0.0552767071  -0.0391321536 -0.190732294
1830208500.000000  -0.347157205 0.0657738818  -0.467016325 0.313707786  -0.465395825 0.316883737  0.0235419864 -0.365598323
1860207000.000000  -0.356334844 0.140616521  -0.190673098 0.515557297  -0.187996899 0.517092988  -0.0597943467 -0.397609521
1890205500.000000  -0.22935416 0.06547831  0.179407074 0.545293788  0.182682291 0.544649041  -0.0272133375 -0.246747181
1920204000.000000  -0.244521984 -0.160211701  0.490514662 0.281120256  0.49228472 0.278755557  0.195006365 -0.208432766
1950202500.000000  -0.3700286 -0.214981687  0.528129112 -0.0721094294  0.527408977 -0.0748077313  0.264518855 -0.331070375
1980201000.000000  -0.331553395 -0.146297237  0.392461691 -0.377321854  0.391876928 -0.379913154  0.166154372 -0.305176406
2010199500.000000  -0.13717741 -0.216558637  0.0453153069 -0.559111592  0.0436215759 -0.559444529  0.194210032 -0.081425422
2040198000.000000  -0.0990274853 -0.409134968  -0.306256063 -0.423487445  -0.306715074 -0.424072702  0.394485323 -0.0223044517
2070196500.000000  -0.158129275 -0.435092747  -0.481018555 -0.164725831  -0.481805772 -0.164628259  0.410235486 -0.119908874
2100195000.000000  -0.0814277254 -0.331205966  -0.507653178 0.179071113  -0.508318204 0.179769172  0.224406983 -0.0742358004
2130193500.000000  0.12699238 -0.349763668  -0.249691328 0.470601647  -0.249440245 0.471116221  0.179569071 0.185257375
2160192000.000000  0.188196369 -0.453858284  0.0850678953 0.494899392  0.0857577468 0.495589509  0.316730791 0.259527127
2190190500.000000  0.15818187 -0.411318365  0.369808944 0.360331424  0.370946188 0.360210329  0.290148941 0.1383378
2220189000.000000  0.248848858 -0.25508042  0.534060543 0.0299321245  0.535219721 0.0281929146  0.0342792536 0.141547466
2250187500.000000  0.412659706 -0.225787012  0.403646942 -0.302306538  0.403882691 -0.304440012  -0.0656447045 0.353497376
2280186000.000000  0.43019808 -0.246739084  0.150771004 -0.470253328  0.149158358 -0.471824086  0.0356623687 0.388871057
2310184500.000000  0.369369349 -0.141436119  -0.183531677 -0.484384329  -0.186143103 -0.484924119  0.0184474564 0.182217908
2340183000.000000  0.424521771 0.0305289075  -0.448873917 -0.235793779  -0.450183546 -0.235061825  -0.242978446 0.0805772556
2370181500.000000  0.496326431 0.0713794711  -0.477802289 0.0763313725  -0.47721046 0.0781088752  -0.356783172 0.189889728
2400180000.000000  0.422365793 0.0786575541  -0.350721669 0.357776537  -0.35026421 0.35920705  -0.239149809 0.18438604
2430178500.000000  0.292998923 0.228840298  -0.0248392286 0.508567824  -0.0240186812 0.508626119  -0.195871541 -0.073926667
2460177000.000000  0.306945337 0.378512986  0.277369707 0.383022412  0.27831524 0.382770988  -0.364336115 -0.213023265
2490175500.000000  0.309241479 0.363312534  0.443458993 0.156745256  0.444182662 0.156644914  -0.397918863 -0.145407777
2520174000.000000  0.139620498 0.316917326  0.467178744 -0.171662201  0.467066398 -0.172390084  -0.191370868 -0.15007466
2550172500.000000  -0.0413781386 0.435030767  0.222433769 -0.417966988  0.221778518 -0.419170123  -0.0658373511 -0.381229266
2580171000.000000  -0.0516028496 0.511086701  -0.0571602031 -0.443336145  -0.0579018424 -0.443988412  -0.134933573 -0.482480569
2610169500.000000  -0.0602455825 0.397563779  -0.324961511 -0.341453188  -0.326314492 -0.341543878  -0.112881757 -0.372217145
2640168000.000000  -0.258642733 0.247373218  -0.473029823 -0.0288214859  -0.474311361 -0.0276015648  0.132709139 -0.320952136
2670166500.000000  -0.423871741 0.282997999  -0.351838629 0.24536226  -0.352788525 0.24645345  0.258572141 -0.452912391
2700165000.000000  -0.391532972 0.281420883  -0.155082094 0.401272292  -0.154884831 0.402602017  0.207235969 -0.454655933
2730163500.000000  -0.323202214 0.0763941745  0.15505148 0.433755293  0.155928614 0.434565834  0.23083117 -0.249940879
2760162000.000000  -0.454261345 -0.140918728  0.382760347 0.199440369  0.383840145 0.200181773  0.447876513 -0.148741813
2790160500.000000  -0.540157832 -0.159123306  0.404846144 -0.0522018297  0.405006917 -0.0525018842  0.51458593 -0.208997999
2820159000.000000  -0.42698754 -0.15972177  0.317595516 -0.30144941  0.31774475 -0.302416261  0.389483485 -0.162002205
2850157500.000000  -0.256274922 -0.3438136  0.0228272875 -0.444054843  0.0225260613 -0.444322519  0.349035555 0.101228053
2880156000.000000  -0.261240077 -0.51781372  -0.231627855 -0.329606609  -0.232700669 -0.328857102  0.488652211 0.218516089
2910154500.000000  -0.25061569 -0.505620937  -0.376121307 -0.147610267  -0.377417899 -0.145964436  0.476633987 0.158896936
2940153000.000000  -0.0703784508 -0.444151398  -0.405964333 0.14412113  -0.404628236 0.146502277  0.241374451 0.195071425
2970151500.000000  0.124448605 -0.539593678  -0.186973733 0.351347629  -0.18347106 0.352840758  0.137359416 0.435999061
3000150000.000000  0.164275939 -0.595672685  0.0437905486 0.373904727  0.0462686885 0.37318923  0.201281435 0.49045838
3030148500.000000  0.199264518 -0.49793196  0.280469009 0.294825856  0.282207489 0.293017101  0.139534825 0.328230366
3060147000.000000  0.37568736 -0.373290168  0.410820455 0.021871496  0.411847354 0.0191897946  -0.162570889 0.258298798
3090145500.000000  0.51276852 -0.374130172  0.313737908 -0.213106012  0.313581533 -0.215580176  -0.307206632 0.386583735
3120144000.000000  0.512417539 -0.333305376  0.146717797 -0.361480606  0.144151105 -0.364145011  -0.233304421 0.372332896
3150142500.000000  0.506102369 -0.15697676  -0.131990086 -0.390609746  -0.136230416 -0.390794971  -0.215466988 0.0970142395
3180141000.000000  0.607142398 -0.0110807781  -0.328224726 -0.193784151  -0.331022722 -0.191035466  -0.427404763 -0.0799554263
3210139500.000000  0.637389623 0.0321112685  -0.366253442 0.0240808858  -0.366523879 0.0282394642  -0.501020329 -0.0427797698
3240138000.000000  0.537889858 0.114555986  -0.291116735 0.263303479  -0.288430352 0.266454787  -0.318063558 -0.0689271014
3270136500.000000  0.475423869 0.312432612  -0.027477923 0.376444883  -0.0240135567 0.376429275  -0.181492757 -0.347248977
3300135000.000000  0.491195254 0.414137023  0.180797825 0.293604054  0.182728127 0.291893007  -0.250098474 -0.501139107
3330133500.000000  0.414671786 0.403558949  0.331981526 0.148110863  0.332123887 0.146395728  -0.23576387 -0.434892957
3360132000.000000  0.190405185 0.442838904  0.364618325 -0.12739752  0.3640004 -0.127875493  0.0123362169 -0.371329472
3390130500.000000  0.0580181301 0.593163558  0.173443316 -0.304110031  0.173340635 -0.304022089  0.196647354 -0.516716676
3420129000.000000  0.0270127167 0.612145113  -0.0230042818 -0.341345313  -0.022796171 -0.341294349  0.191177408 -0.556104826
3450127500.000000  -0.084390191 0.477881121  -0.255277468 -0.27415202  -0.255044281 -0.274225558  0.2210493 -0.386839322
3480126000.000000  -0.335651732 0.420107858  -0.355480363 -0.0180540292  -0.355472348 -0.0181125144  0.453611597 -0.259824114
3510124500.000000  -0.447842156 0.44696886  -0.274755175 0.169613182  -0.274875152 0.169410759  0.571478004 -0.294873967
3540123000.000000  -0.426136545 0.360977486  -0.144498535 0.312104733  -0.144992152 0.312523954  0.516611921 -0.254002555
3570121500.000000  -0.446261354 0.101250091  0.11411872 0.348174052  0.114252168 0.34857944  0.474172843 -0.020687852
3600120000.000000  -0.589254532 -0.0666992367  0.283925458 0.172605545  0.283954021 0.172994703  0.592661517 0.1397491
3630118500.000000  -0.60333864 -0.110846538  0.327799866 -0.0127703337  0.328583203 -0.012548557  0.601120092 0.145660378
3660117000.000000  -0.451977249 -0.21457251  0.267865329 -0.239685134  0.26929849 -0.240462765  0.420394654 0.205225291
3690115500.000000  -0.354329226 -0.455564252  0.0260777167 -0.3398406  0.0260739081 -0.342577768  0.304188281 0.444540406
3720114000.000000  -0.350833802 -0.576440689  -0.15592827 -0.271195483  -0.158374655 -0.272704915  0.33260688 0.548263537
3750112500.000000  -0.259685146 -0.559541016  -0.298713793 -0.148529779  -0.301901255 -0.14733896  0.264533741 0.470536081
3780111000.000000  -0.0229810181 -0.559162065  -0.333733024 0.0994952817  -0.334299471 0.103514601  -0.00968017591 0.423144674
3810109500.000000  0.137740344 -0.653573159  -0.173583228 0.260901365  -0.171298235 0.263502514  -0.177247657 0.545453925
3840108000.000000  0.198784088 -0.645175103  0.000367080722 0.311611221  0.00350476759 0.312004366  -0.168610282 0.530247842
3870106500.000000  0.310248261 -0.513387692  0.21971587 0.254866091  0.222526817 0.253245618  -0.222758787 0.287535836
3900105000.000000  0.505250132 -0.440021332  0.308165423 0.0340892061  0.309021083 0.0313160126  -0.480346482 0.134341882
3930103500.000000  0.59435662 -0.416816104  0.255630964 -0.130675527  0.254772825 -0.132671355  -0.573710422 0.153893331
3960102000.000000  0.594676375 -0.311793904  0.145485762 -0.272627353  0.144445313 -0.274163067  -0.444100634 0.0922613096
3990100500.000000  0.640014869 -0.112636504  -0.0850258046 -0.304102965  -0.0867995347 -0.304125585  -0.323963879 -0.204490143
4020099000.000000  0.724086876 0.00585891501  -0.229383415 -0.166354542  -0.230373788 -0.166045025  -0.400382067 -0.402522185
4050097500.000000  0.701816836 0.0778754053  -0.28630307 -0.0102419006  -0.287691958 -0.00987287244  -0.376239483 -0.389141846
4080096000.000000  0.595573093 0.226481209  -0.234799339 0.198395745  -0.236177641 0.20027074  -0.120247104 -0.376234128
4110094500.000000  0.570367707 0.417961742  -0.0347724515 0.276550258  -0.0336786784 0.279287242  0.0940640722 -0.563120981
4140093000.000000  0.550782661 0.494951308  0.114505445 0.237165047  0.117440642 0.237644756  0.124154414 -0.641473852
4170091500.000000  0.421650911 0.512321332  0.25612841 0.138281362  0.257838054 0.135627267  0.167590232 -0.508985198
4200090000.000000  0.212377289 0.613738478  0.281602599 -0.0824162405  0.280219528 -0.0849049579  0.407320362 -0.338243506
4230088500.000000  0.108813608 0.719276572  0.155630988 -0.210244485  0.153313625 -0.210786439  0.588188122 -0.345807549
4260087000.000000  0.0267872148 0.689781607  0.0161372587 -0.268940135  0.0139588644 -0.268232343  0.583641074 -0.305664686
4290085500.000000  -0.163213267 0.572248848  -0.183510918 -0.226945583  -0.184598149 -0.224728599  0.546950836 -0.0814153079
4320084000.000000  -0.390921226 0.554909981  -0.261075118 -0.0407577382  -0.26060986 -0.0387530657  0.662106547 0.125547767
4350082500.000000  -0.481322386 0.525814417  -0.231181862 0.10264261  -0.229815569 0.104082323  0.697831654 0.179600855
4380081000.000000  -0.500218324 0.361523494  -0.135717359 0.245266364  -0.133619407 0.246034832  0.562303302 0.238465164
4410079500.000000  -0.612547328 0.112551312  0.075513347 0.265112566  0.0776129311 0.264254257  0.417379756 0.451492248
4440078000.000000  -0.71552881 -0.0132565952  0.193443292 0.151861101  0.195026692 0.150338891  0.40754716 0.590607478
4470076500.000000  -0.667971639 -0.106258118  0.255182424 0.0232525505  0.255990048 0.020827904  0.340554946 0.578429065
4500075000.000000  -0.518638324 -0.296571616  0.216433986 -0.166003916  0.215184381 -0.168897032  0.114391326 0.558520966
4530073500.000000  -0.46207842 -0.513509274  0.049423169 -0.238193988  0.0466945157 -0.23918954  -0.0683565855 0.665267675
4560072000.000000  -0.402469146 -0.59568488  -0.0832326248 -0.220924965  -0.0853906834 -0.219732528  -0.127597617 0.679632832
4590070500.000000  -0.235355939 -0.602812027  -0.22227079 -0.135664612  -0.222712995 -0.133386327  -0.209602918 0.526597289
4620069000.000000  -0.00419800101 -0.678920906  -0.243153976 0.0553552317  -0.241940311 0.0567480795  -0.441770182 0.380639636
4650067500.000000  0.126946036 -0.741278939  -0.1515648 0.166113593  -0.150051084 0.166497595  -0.57631315 0.356626131
4680066000.000000  0.225597094 -0.686733213  -0.0359622091 0.235417386  -0.0344845987 0.235157139  -0.545665316 0.266804659
4710064500.000000  0.393722381 -0.558412739  0.14413923 0.205630006  0.144866618 0.204456813  -0.500564613 -0.00145952972
4740063000.000000  0.567485947 -0.503682337  0.216265857 0.0557204123  0.216635242 0.0545772291  -0.596219008 -0.22009114
4770061500.000000  0.635421231 -0.440140029  0.207378548 -0.0670496168  0.207030294 -0.0684513354  -0.594133409 -0.283646832
4800060000.000000  0.655846069 -0.285602933  0.133028849 -0.198920888  0.131490402 -0.200052217  -0.398613051 -0.338806994
4830058500.000000  0.737171321 -0.0982271813  -0.0382759865 -0.224037852  -0.0401052493 -0.223820225  -0.178647572 -0.545202967
4860057000.000000  0.789154296 0.0119077149  -0.144082814 -0.149640434  -0.145121258 -0.148294918  -0.101798499 -0.672489684
4890055500.000000  0.740938743 0.115567284  -0.216569044 -0.045658634  -0.216666548 -0.0438502855  -0.00673498707 -0.612217197
4920054000.000000  0.64979276 0.294329346  -0.193944329 0.120927754  -0.192803438 0.122202536  0.247608582 -0.488696126
4950052500.000000  0.620959079 0.456553239  -0.0647051969 0.191645704  -0.0633215707 0.191594585  0.474277919 -0.49722277
4980051000.000000  0.557539225 0.525730934  0.0494049528 0.193626023  0.0502270551 0.192967332  0.535595819 -0.460305502
5010049500.000000  0.391259549 0.573510189  0.178071487 0.124122401  0.178213284 0.123134755  0.542066696 -0.270209607
5040048000.000000  0.219024942 0.698132806  0.195758098 -0.0322997489  0.195283625 -0.0329332826  0.65962962 -0.0527420251
5070046500.000000  0.118585753 0.763819108  0.131938507 -0.124646819  0.131465299 -0.12502146  0.727690488 0.0409285131
5100045000.000000  -0.00137435661 0.720680132  0.0373898519 -0.192924497  0.0369334929 -0.193097886  0.652947349 0.124052674
5130043500.000000  -0.207175856 0.647611749  -0.112914657 -0.167327862  -0.113503236 -0.167262521  0.526777078 0.330178854
5160042000.000000  -0.37805638 0.627728653  -0.173009334 -0.0553319842  -0.173576504 -0.0550017965  0.510300303 0.517222238
5190040500.000000  -0.459802738 0.556236041  -0.180594842 0.0458073752  -0.18101852 0.0467987656  0.463159838 0.574395995
5220039000.000000  -0.515352534 0.374353513  -0.125393516 0.167800578  -0.124513619 0.169323953  0.295773446 0.58319744
5250037500.000000  -0.641070079 0.168818669  0.0188739816 0.200829576  0.0203375125 0.201356917  0.097287104 0.67405052
5280036000.000000  -0.714008954 0.0383393511  0.120477756 0.147147717  0.12176624 0.146765128  -0.00524534385 0.72885169
5310034500.000000  -0.66376383 -0.101419173  0.194212267 0.0520815813  0.194928319 0.0510361531  -0.102293896 0.661255911
5340033000.000000  -0.575755994 -0.321615766  0.17128257 -0.0912737345  0.171361883 -0.0924515047  -0.298183716 0.55586338
5370031500.000000  -0.528720793 -0.493797115  0.0739902922 -0.154933851  0.0733553193 -0.155763301  -0.465005097 0.52320614
5400030000.000000  -0.42805881 -0.568615162  -0.0247054081 -0.174450331  -0.0257579941 -0.174883917  -0.523635564 0.448851328
5430028500.000000  -0.226217959 -0.605080933  -0.147664839 -0.124495929  -0.148897592 -0.123985417  -0.547218524 0.250183269
5460027000.000000  -0.0126477064 -0.694669289  -0.184057838 0.00667582368  -0.18459431 0.00799578359  -0.646497849 0.0390343985
5490025500.000000  0.124337428 -0.731781411  -0.147273487 0.103560327  -0.146945959 0.105037498  -0.685223927 -0.0752066216
5520024000.000000  0.255947292 -0.660530362  -0.0676099521 0.184180486  -0.066271796 0.185214537  -0.582262974 -0.178369027
5550022500.000000  0.444925548 -0.560656252  0.0632873305 0.179593387  0.0650231715 0.179519342  -0.420301471 -0.371659808
5580021000.000000  0.586067426 -0.499759822  0.13333173 0.104570863  0.134373616 0.10382866  -0.327072529 -0.537530866
5610019500.000000  0.646297696 -0.401017563  0.166080234 0.0198589539  0.166479672 0.0185663099  -0.227713892 -0.576232844
5640018000.000000  0.69151001 -0.235721666  0.135092297 -0.0928074488  0.134732362 -0.0941401577  -0.0271719565 -0.527059076
5670016500.000000  0.758921308 -0.090033885  0.0339891517 -0.134266287  0.0330771985 -0.13513996  0.206793796 -0.542470767
5700015000.000000  0.768793949 0.0155491804  -0.0488950962 -0.120881029  -0.0502607095 -0.121019704  0.324401205 -0.537452586
5730013500.000000  0.705569956 0.138023186  -0.129649209 -0.0602594759  -0.130785095 -0.0592658848  0.386314414 -0.40528336
5760012000.000000  0.642917914 0.314444578  -0.131045865 0.0535294755  -0.131052659 0.0549638949  0.532677877 -0.213440293
5790010500.000000  0.612627212 0.446845815  -0.0714673776 0.113218158  -0.0705722255 0.114436187  0.659629286 -0.114943659
5820009000.000000  0.543867644 0.515003166  -0.00378818615 0.146976081  -0.00234530909 0.147300646  0.667976792 -0.0358841097
5850007500.000000  0.407708221 0.571116099  0.0968047308 0.131942767  0.0982027397 0.131263328  0.58125542 0.112400369
5880006000.000000  0.272142902 0.65600847  0.149636857 0.0428805862  0.150316718 0.0417617961  0.536989069 0.314251169
5910004500.000000  0.167975952 0.700848158  0.142519796 -0.0417906351  0.142317626 -0.0428516788  0.513610883 0.432341246
5940003000.000000  0.0423820067 0.675962955  0.0893441912 -0.118843206  0.088716231 -0.119331601  0.415723269 0.487894577
5970001500.000000  -0.137246745 0.640199794  -0.01108469 -0.13242019  -0.0115276163 -0.13239891  0.27038064 0.579942824
6000000000.000000  -0.28570899 0.615230511  -0.0790995715 -0.0879725743  -0.0794064504 -0.0879889745  0.172026326 0.659801119
