! 2-port S-parameters written by miniscope-char acquisition
! instrument: Pico Technology Ltd,PicoVNA-106,10080,5.3.4
! transport: scpi
! endpoint: 127.0.0.1:5025
! demo: false
! calibration: software
# HZ S RI R 50
300000.000000  0.0188696095 -0.0120024801  0.973487736 -0.0128818613  1.02221027 0.0283039558  0.0129415523 -0.0184976269
30298500.000000  0.0302838512 -0.0442576671  0.651262105 -0.691148445  0.655406205 -0.650698043  0.0315764873 -0.0414273338
60297000.000000  -0.0513682271 -0.0388327702  -0.0191343378 -0.910889057  0.00877581601 -0.888679509  -0.0524052146 -0.0405188514
90295500.000000  -0.038329409 0.0305899019  -0.626496597 -0.627757293  -0.597669036 -0.626054315  -0.0534995739 0.0240382992
120294000.000000  0.0244001217 0.0089169773  -0.870108415 -0.0198493297  -0.847884676 -0.0415719018  -0.00896507967 0.0101555974
150292500.000000  -0.00563515396 -0.0555206205  -0.629701155 0.575726649  -0.624726645 0.549584427  -0.0344242507 -0.0377797149
180291000.000000  -0.0679015364 -0.0233844192  -0.0590089045 0.834623437  -0.0738405539 0.811784259  -0.0819073192 -0.0168801613
210289500.000000  -0.0290040629 0.0293925248  0.522803209 0.638630788  0.496020972 0.631192822  -0.0536635627 0.0159916677
240288000.000000  0.0179377724 -0.0278061278  0.809112643 0.0996551401  0.78622738 0.113394654  -0.0165529506 -0.0327073117
270286500.000000  -0.0463621546 -0.0758110852  0.646398352 -0.478591297  0.63845724 -0.452153103  -0.0590382302 -0.0812554648
300285000.000000  -0.0825035048 -0.00664303611  0.142834381 -0.774029024  0.154156347 -0.751467888  -0.0862589649 -0.0409129263
330283500.000000  -0.00739444913 0.00883583216  -0.428419677 -0.657075613  -0.404219642 -0.649141733  -0.0308769237 -0.028285131
360282000.000000  0.00482001214 -0.0731641715  -0.752999405 -0.178267271  -0.729047782 -0.187650896  0.00879794557 -0.0890229304
390280500.000000  -0.0705422768 -0.0664657196  -0.66064603 0.378415236  -0.651420161 0.355608651  -0.0192063335 -0.117893073
420279000.000000  -0.0331941104 0.0173219271  -0.218387789 0.724682734  -0.227297242 0.701936858  -0.00902942292 -0.0827105133
450277500.000000  0.0597785355 -0.0179923611  0.335605146 0.67430777  0.313362729 0.664019907  0.0493363156 -0.0855348221
480276000.000000  0.0234882508 -0.0807758257  0.692512934 0.25830814  0.670450095 0.266273218  0.0532357377 -0.104673924
510274500.000000  -0.0215571456 -0.0162711147  0.676128267 -0.285466807  0.665477299 -0.264158108  0.0465788099 -0.0644006696
540273000.000000  0.0613372594 0.033395247  0.294088209 -0.6678879  0.30247902 -0.647306357  0.0954444189 -0.0261591821
570271500.000000  0.101596118 -0.0261340121  -0.238839875 -0.676187384  -0.218579421 -0.66567072  0.114058823 -0.0469882896
600270000.000000  0.0322887667 -0.0370661421  -0.630067712 -0.330246283  -0.608698805 -0.335824751  0.0640210189 -0.0330112394
630268500.000000  0.0291306426 0.0437438603  -0.680477255 0.190508315  -0.668902802 0.171722911  0.0467816788 0.0428377533
660267000.000000  0.0883838818 0.0389532528  -0.363990058 0.595387045  -0.367704213 0.573611658  0.0787147458 0.066619091
690265500.000000  0.0467925051 -0.00822404569  0.139813092 0.681303937  0.121537196 0.668052043  0.0478804262 0.0450500737
720264000.000000  -0.0178292612 0.0494732251  0.564941381 0.394211806  0.542877318 0.396703708  -0.01607649 0.0804961637
750262500.000000  0.021377428 0.103474269  0.676734902 -0.0988674941  0.662770794 -0.0815849301  -0.0175044066 0.12748178
780261000.000000  0.0409922399 0.0524287267  0.427530275 -0.529219586  0.429532067 -0.507202934  -0.0132994534 0.0852079067
810259500.000000  -0.0510193275 0.052215126  -0.0562176963 -0.667227022  -0.0403344725 -0.652661427  -0.0973207375 0.0353854951
840258000.000000  -0.0511272029 0.143103649  -0.485686405 -0.441258669  -0.465115742 -0.442035011  -0.170758626 0.0795749362
870256500.000000  0.0272751604 0.107678972  -0.654788489 0.00297705643  -0.639798774 -0.0116845572  -0.141180906 0.0873603778
900255000.000000  -0.0500511286 0.00102049307  -0.46964803 0.45129659  -0.469645803 0.430221747  -0.145443965 -0.011227962
930253500.000000  -0.163584144 0.0591853976  -0.0348335219 0.633677991  -0.0471204831 0.618361281  -0.2315158 -0.0553586748
960252000.000000  -0.0993023151 0.13044659  0.394816242 0.489230797  0.375075902 0.487045308  -0.238785097 -0.0338341124
990250500.000000  -0.0306226191 0.0080307324  0.625646003 0.0874497685  0.609110011 0.0987850195  -0.166754913 -0.0913989613
1020249000.000000  -0.156090975 -0.089289467  0.504163807 -0.358178112  0.499551358 -0.339831796  -0.168613914 -0.202222472
1050247500.000000  -0.20750762 0.00743680043  0.132740837 -0.594025437  0.141193791 -0.577160956  -0.196744479 -0.208965918
1080246000.000000  -0.064364112 0.0102996128  -0.311477689 -0.528666317  -0.295130494 -0.520614173  -0.11059535 -0.183249723
1110244500.000000  -0.0412348006 -0.159683407  -0.580870921 -0.160501579  -0.563186893 -0.166431881  -0.00999534414 -0.26120363
1140243000.000000  -0.153983981 -0.175557885  -0.527685171 0.266368183  -0.518736916 0.249974263  -0.0187371936 -0.309043021
1170241500.000000  -0.103626527 -0.0679371336  -0.209203004 0.562321671  -0.214040017 0.543841093  0.0080072446 -0.229742744
1200240000.000000  0.0481950246 -0.13468544  0.242241729 0.540780613  0.226594543 0.531958528  0.149008643 -0.190176377
1230238500.000000  0.000654843518 -0.253155789  0.526953044 0.226006184  0.509625898 0.229836386  0.21100416 -0.246775117
1260237000.000000  -0.0754491488 -0.160687814  0.54542089 -0.1853618  0.535657448 -0.171297341  0.170095694 -0.215624873
1290235500.000000  0.0672809849 -0.0578785973  0.262840725 -0.51600791  0.264506603 -0.500367902  0.206921535 -0.0916005822
1320234000.000000  0.179174504 -0.164230726  -0.158690666 -0.539040555  -0.148035471 -0.528776077  0.29921756 -0.0659852117
1350232500.000000  0.0987838509 -0.214990536  -0.479119759 -0.297479972  -0.465059613 -0.2963519  0.265670021 -0.0850342843
1380231000.000000  0.0799557426 -0.0810230778  -0.562675156 0.12086222  -0.551482538 0.112484586  0.168276669 0.0242011586
1410229500.000000  0.222975189 -0.042106664  -0.310494256 0.466051514  -0.308134174 0.452988889  0.201055419 0.1680304
1440228000.000000  0.230660738 -0.128107281  0.0750379519 0.54497577  0.0679324176 0.53443465  0.240158502 0.159966682
1470226500.000000  0.130745452 -0.0660797607  0.43309056 0.354983988  0.420420328 0.351742757  0.121210344 0.132568295
1500225000.000000  0.183543833 0.0668798439  0.551269408 -0.0442163544  0.540539371 -0.0375506855  -0.00103981814 0.236614177
1530223500.000000  0.247197942 0.0358502183  0.374747144 -0.394856328  0.371712351 -0.38265223  0.000914653428 0.28851406
1560222000.000000  0.143807522 0.0243671067  0.00753422426 -0.552927365  0.013177561 -0.541675  -0.0498687255 0.19740232
1590220500.000000  0.0960920337 0.160356891  -0.372955569 -0.396395867  -0.361272109 -0.392261675  -0.215931019 0.148423908
1620219000.000000  0.174563476 0.17611623  -0.52659737 -0.0448803935  -0.515843803 -0.0485172039  -0.302122292 0.179873364
1650217500.000000  0.102760896 0.0585803687  -0.424644462 0.321901676  -0.419401989 0.312042078  -0.294489111 0.127617218
1680216000.000000  -0.0921516721 0.106562452  -0.0833897549 0.52046229  -0.0859779373 0.508897293  -0.336406933 0.00616727002
1710214500.000000  -0.0916016923 0.242581365  0.278371002 0.43074868  0.269372852 0.424511647  -0.380554142 -0.0384265883
1740213000.000000  -0.0119379262 0.177356607  0.500471592 0.136845511  0.489239556 0.138144149  -0.310582899 -0.0723151946
1770211500.000000  -0.122072251 0.0537809727  0.451792413 -0.253052777  0.445262503 -0.243843639  -0.217893486 -0.211689338
1800210000.000000  -0.220068453 0.129233198  0.152321884 -0.472724682  0.15328586 -0.462841309  -0.221540024 -0.334755148
1830208500.000000  -0.103160482 0.150268276  -0.198214962 -0.452315827  -0.190901128 -0.44494542  -0.198632461 -0.345744376
1860207000.000000  -0.061199103 -0.0507885376  -0.456214134 -0.188193399  -0.44667157 -0.187647689  -0.0818927199 -0.364557953
1890205500.000000  -0.222658286 -0.130750986  -0.443785528 0.168735148  -0.436886978 0.163136842  -0.0059047236 -0.430774675
1920204000.000000  -0.230201535 -0.0280209014  -0.219130829 0.421228026  -0.217976414 0.41273498  0.023442802 -0.411856477
1950202500.000000  -0.0610270951 -0.0939258203  0.142910864 0.459852781  0.137345608 0.452510057  0.145626496 -0.333449748
1980201000.000000  -0.0885222684 -0.291393931  0.402293198 0.219299924  0.393827776 0.21793506  0.288564801 -0.351868156
2010199500.000000  -0.196046834 -0.272110837  0.442919255 -0.095100323  0.435074664 -0.0908938297  0.301770873 -0.355625427
2040198000.000000  -0.0821117361 -0.181484412  0.262217213 -0.387913077  0.258721791 -0.379074639  0.308442588 -0.207361381
2070196500.000000  0.0616962831 -0.311047148  -0.0868261833 -0.439922527  -0.0832225851 -0.431021737  0.444101516 -0.0703453142
2100195000.000000  -0.00155139939 -0.399307677  -0.338218551 -0.267179758  -0.330230271 -0.263102942  0.509386661 -0.0554599668
2130193500.000000  -0.0147590046 -0.274490981  -0.446050197 0.0287876806  -0.436478652 0.0266850575  0.426317927 0.0104448735
2160192000.000000  0.184719438 -0.209328207  -0.288605915 0.338587392  -0.28356582 0.330533372  0.37184896 0.202527272
2190190500.000000  0.266229549 -0.324447682  0.0129097158 0.4225399  0.0109110642 0.414021908  0.408299578 0.308548962
2220189000.000000  0.176015469 -0.303276612  0.292902852 0.322531527  0.284798135 0.316903331  0.340740401 0.289394149
2250187500.000000  0.216636518 -0.119547056  0.450116073 0.0186196107  0.440167857 0.0215900324  0.134517233 0.336403554
2280186000.000000  0.354562311 -0.11107122  0.322221354 -0.282404669  0.317315316 -0.273115003  0.0219650894 0.465518218
2310184500.000000  0.288040527 -0.157905701  0.0667881741 -0.421574488  0.068812371 -0.411442086  -0.00975436559 0.462274825
2340183000.000000  0.173504012 -0.00967850612  -0.243638549 -0.365595341  -0.235466209 -0.359665596  -0.122976243 0.358311966
2370181500.000000  0.246265033 0.14638878  -0.419002793 -0.0999952302  -0.408612048 -0.0999056671  -0.269659872 0.318775346
2400180000.000000  0.293040435 0.113213124  -0.38073018 0.197831226  -0.373093622 0.191418223  -0.30276009 0.27778985
2430178500.000000  0.166331483 0.11452907  -0.14203222 0.412539451  -0.14168736 0.401247268  -0.310812554 0.115577412
2460177000.000000  0.121964244 0.241349985  0.175244106 0.379958673  0.16721127 0.371510039  -0.402072288 -0.0383390508
2490175500.000000  0.168414585 0.229498691  0.376013923 0.167808782  0.363727122 0.167684895  -0.429555198 -0.0993854486
2520174000.000000  0.0501659314 0.130929605  0.396865208 -0.14355754  0.3867203 -0.134002009  -0.345600193 -0.199767453
2550172500.000000  -0.121619258 0.223096465  0.172038449 -0.368720522  0.171798672 -0.355180121  -0.30235967 -0.364231578
2580171000.000000  -0.0807976874 0.31719624  -0.108719305 -0.377920474  -0.100050269 -0.368293308  -0.294877964 -0.434728109
2610169500.000000  -0.0346275855 0.184999003  -0.342054013 -0.21318462  -0.329565991 -0.212050098  -0.182532743 -0.440033119
2640168000.000000  -0.212554379 0.0548754533  -0.38664282 0.0846295675  -0.37776661 0.0772672866  -0.019040152 -0.517596143
2670166500.000000  -0.320042919 0.132523118  -0.225361993 0.304918846  -0.224281245 0.293883648  0.0646470724 -0.5795671
2700165000.000000  -0.209641271 0.109913258  0.034808176 0.383600981  0.0284094807 0.374035205  0.146537835 -0.526604024
2730163500.000000  -0.210166088 -0.122926075  0.290764273 0.237222246  0.279504692 0.234969597  0.312658486 -0.455169025
2760162000.000000  -0.356347203 -0.190215283  0.348786299 -0.0164324981  0.339806653 -0.0103962256  0.429993713 -0.440846503
2790160500.000000  -0.314368417 -0.127407423  0.257606928 -0.246104724  0.253887712 -0.235805701  0.450983303 -0.354414855
2820159000.000000  -0.137257987 -0.238856373  -0.00119342562 -0.358420924  0.00417885473 -0.3491516  0.51602852 -0.167741807
2850157500.000000  -0.151705465 -0.408087655  -0.228652128 -0.243175901  -0.219066405 -0.240439097  0.620273531 -0.0638260206
2880156000.000000  -0.187772139 -0.37016752  -0.33713052 -0.0448154258  -0.327978268 -0.0490115169  0.600833218 -0.00870403519
2910154500.000000  -0.0203447565 -0.281703856  -0.288869265 0.219455508  -0.28624043 0.209020659  0.48940769 0.138631824
2940153000.000000  0.143166375 -0.391240271  -0.0451949745 0.345723711  -0.0502359732 0.336250146  0.466027141 0.321647529
2970151500.000000  0.122277174 -0.438825556  0.185664206 0.288429666  0.17499031 0.285017057  0.435608649 0.36508753
3000150000.000000  0.151593934 -0.319777565  0.34792004 0.0844683179  0.337405624 0.0906660854  0.260871432 0.380964681
3030148500.000000  0.309691429 -0.271279852  0.292978115 -0.177500536  0.290277454 -0.165765011  0.096199115 0.507543629
3060147000.000000  0.353354644 -0.314918458  0.108940248 -0.312789673  0.114777403 -0.303334507  0.0439559557 0.56306526
3090145500.000000  0.291447954 -0.236873217  -0.133956886 -0.323613367  -0.123715714 -0.32044854  -0.0465977385 0.476886248
3120144000.000000  0.361818145 -0.0596477315  -0.327018661 -0.124682872  -0.317825447 -0.129537514  -0.250348823 0.39769981
3150142500.000000  0.466570398 -0.0435509578  -0.308055806 0.120598992  -0.305040821 0.111900877  -0.372795362 0.3941021
3180141000.000000  0.404822447 -0.032621627  -0.155539393 0.304153658  -0.159102885 0.295174943  -0.377881435 0.28625312
3210139500.000000  0.354677235 0.138693559  0.113654367 0.324206942  0.104528795 0.320707194  -0.448729248 0.0586328206
3240138000.000000  0.436795763 0.231297418  0.27931503 0.154051942  0.270887388 0.157183482  -0.566636254 -0.0664484035
3270136500.000000  0.409032196 0.192926692  0.320905325 -0.0522277184  0.315660623 -0.0447815064  -0.534185629 -0.131525546
3300135000.000000  0.233931948 0.244376689  0.205486788 -0.270397763  0.20641766 -0.261401483  -0.393224119 -0.291883008
3330133500.000000  0.174050883 0.396242955  -0.0337717957 -0.321373676  -0.0279551869 -0.315371766  -0.32662457 -0.481076338
3360132000.000000  0.176698288 0.388705262  -0.229658848 -0.223047774  -0.221754644 -0.221486118  -0.259294812 -0.533030392
3390130500.000000  0.0212023989 0.315654491  -0.326504427 0.00289401699  -0.319659875 -0.000878399511  -0.0680047425 -0.530989392
3420129000.000000  -0.130627404 0.388820414  -0.215017334 0.215013914  -0.212438147 0.208308421  0.120811103 -0.597970081
3450127500.000000  -0.120667374 0.397844596  -0.0265138843 0.298195272  -0.0285890552 0.291424323  0.215312251 -0.596434544
3480126000.000000  -0.144484414 0.231318672  0.197773283 0.246372522  0.191360587 0.242696186  0.328648083 -0.482429505
3510124500.000000  -0.3177452 0.120516443  0.30793414 0.0278615929  0.300641624 0.0300881373  0.498842227 -0.384960476
3540123000.000000  -0.364321684 0.141536176  0.242110241 -0.17875895  0.238776309 -0.172694671  0.583900533 -0.321555138
3570121500.000000  -0.263002371 0.0318856349  0.0546076516 -0.303623616  0.0560629025 -0.297036222  0.600366013 -0.178245056
3600120000.000000  -0.301041028 -0.186184052  -0.167947899 -0.238626722  -0.163291346 -0.234995685  0.662486822 -0.00671853186
3630118500.000000  -0.388406969 -0.219992947  -0.264667516 -0.0707361352  -0.259782059 -0.0704181343  0.697703146 0.0868974352
3660117000.000000  -0.288481709 -0.180728283  -0.255210926 0.12504963  -0.250963053 0.122241573  0.632025275 0.179851372
3690115500.000000  -0.116499486 -0.320562261  -0.0848184851 0.268768511  -0.0835017238 0.263903589  0.552117573 0.347395737
3720114000.000000  -0.126280665 -0.457323294  0.107633687 0.240765377  0.105532289 0.236186864  0.522782393 0.474342975
3750112500.000000  -0.118329754 -0.402624145  0.24542021 0.120958768  0.24005991 0.1188691  0.430206634 0.518508259
3780111000.000000  0.0800406894 -0.341794999  0.266278389 -0.0956743949  0.261069301 -0.0921169938  0.245194837 0.57875794
3810109500.000000  0.223299156 -0.440684135  0.118572198 -0.236726783  0.118418502 -0.229991211  0.109299425 0.668829054
3840108000.000000  0.222145056 -0.44502334  -0.0608495334 -0.261224903  -0.0556336803 -0.255521426  0.0103648226 0.649349573
3870106500.000000  0.297483424 -0.301737084  -0.240244082 -0.146137067  -0.232458762 -0.146217202  -0.175142507 0.54427245
3900105000.000000  0.466550119 -0.251917548  -0.256730161 0.0627437442  -0.251681404 0.0576915793  -0.379786553 0.505251884
3930103500.000000  0.508080711 -0.247772412  -0.155407875 0.210446171  -0.154763593 0.204031248  -0.449483759 0.432406484
3960102000.000000  0.496188636 -0.122798236  0.0390147794 0.27196458  0.034840915 0.267306923  -0.48074079 0.20078772
3990100500.000000  0.583845639 0.0105761312  0.205186606 0.153688524  0.199389723 0.153081014  -0.609229092 -0.0326541719
4020099000.000000  0.618071954 0.039055232  0.24472377 -0.00300721756  0.240387875 0.000621050111  -0.647605386 -0.141761354
4050097500.000000  0.527042425 0.0928825649  0.199424417 -0.171552234  0.199401473 -0.165322562  -0.514270804 -0.250565891
4080096000.000000  0.452283074 0.251013422  0.014073107 -0.265105713  0.0189171137 -0.261385842  -0.340887129 -0.460586119
4110094500.000000  0.450872624 0.32834751  -0.157493335 -0.195228576  -0.152670649 -0.19555652  -0.2523992 -0.605174237
4140093000.000000  0.342052357 0.324974424  -0.253231712 -0.0414361551  -0.249187071 -0.0442968536  -0.108533468 -0.614955541
4170091500.000000  0.165716616 0.426732813  -0.200868381 0.149727892  -0.199383563 0.144432252  0.116111691 -0.626811188
4200090000.000000  0.11176462 0.533813079  -0.0482778898 0.227524294  -0.0508325486 0.222158542  0.263454771 -0.644721716
4230088500.000000  0.061600363 0.500315488  0.113913066 0.209620781  0.107149749 0.20723927  0.349589016 -0.54862658
4260087000.000000  -0.106436267 0.455062126  0.2307062 0.0601671764  0.224609656 0.0637746399  0.508901543 -0.375647814
4290085500.000000  -0.217372584 0.499831171  0.191967609 -0.0993368632  0.189849121 -0.09358261  0.668915352 -0.289866604
4320084000.000000  -0.221932155 0.45879319  0.0937837713 -0.198100483  0.0945735052 -0.192887442  0.706518297 -0.199525829
4350082500.000000  -0.281293676 0.275456012  -0.0752399881 -0.222346526  -0.072575906 -0.218683889  0.694146365 -0.0213114009
4380081000.000000  -0.452931756 0.168094123  -0.199470985 -0.0991788293  -0.195911715 -0.0978147496  0.725997804 0.159779811
4410079500.000000  -0.495439779 0.140437559  -0.211598598 0.0490582665  -0.20842699 0.0484514009  0.705990466 0.26707483
4440078000.000000  -0.433829957 -0.00076848131  -0.12166354 0.187323061  -0.119961235 0.18520449  0.588631058 0.389709913
4470076500.000000  -0.463401885 -0.194127353  0.0454077601 0.201718842  0.0447117107 0.199747546  0.484851516 0.556678529
4500075000.000000  -0.480093072 -0.263611008  0.157553118 0.116842751  0.155761068 0.116261617  0.401878064 0.644440766
4530073500.000000  -0.357764454 -0.307829523  0.202288633 -0.0289346082  0.200350731 -0.0275136152  0.236174055 0.662512125
4560072000.000000  -0.216679205 -0.449533243  0.109483874 -0.162796137  0.109761825 -0.159572536  0.0281874297 0.726705496
4590070500.000000  -0.159010579 -0.541711325  -0.0218090535 -0.189158781  -0.0189161508 -0.186639615  -0.104631492 0.750669473
4620069000.000000  -0.0575010393 -0.518227833  -0.152848072 -0.138630893  -0.148236235 -0.138901392  -0.233016345 0.651373471
4650067500.000000  0.138277999 -0.52058406  -0.207530426 0.0119907963  -0.204340522 0.0085326659  -0.430561304 0.515384085
4680066000.000000  0.254328288 -0.566043047  -0.142479196 0.130410402  -0.14212713 0.126151048  -0.571364031 0.43093437
4710064500.000000  0.306097865 -0.523879621  -0.0330667121 0.192819225  -0.0356295087 0.189059425  -0.594559381 0.29087235
4740063000.000000  0.398294048 -0.420247547  0.107644388 0.158756442  0.103497121 0.157965559  -0.608971182 0.0485855556
4770061500.000000  0.49336514 -0.360407986  0.16776115 0.041971911  0.164489351 0.0440937228  -0.652132394 -0.144850531
4800060000.000000  0.516094774 -0.286695433  0.149984013 -0.0782914302  0.148812763 -0.0745862247  -0.581854301 -0.277204789
4830058500.000000  0.538364969 -0.140600541  0.0388861135 -0.158893839  0.0407805314 -0.155650532  -0.428205097 -0.470579723
4860057000.000000  0.607201578 -0.0260757116  -0.0769943556 -0.126700107  -0.0735468071 -0.125696755  -0.331532525 -0.645004944
4890055500.000000  0.611822701 0.033176975  -0.146166583 -0.0483163687  -0.142732926 -0.0497194409  -0.216495085 -0.694324129
4920054000.000000  0.539081812 0.143972576  -0.150564089 0.0804998377  -0.149146191 0.07649864  -0.00611486077 -0.672537987
4950052500.000000  0.523638694 0.300842375  -0.0473877838 0.157284868  -0.0490211561 0.153381228  0.223649706 -0.690182122
4980051000.000000  0.518512348 0.37220692  0.0540315763 0.153314919  0.0504567445 0.151146561  0.364842416 -0.664584945
5010049500.000000  0.428879315 0.409955002  0.147803802 0.0924226609  0.143307369 0.0930066514  0.476002066 -0.523864001
5040048000.000000  0.305122964 0.504135791  0.165641566 -0.03025193  0.162787773 -0.0268276162  0.63745745 -0.338439514
5070046500.000000  0.232341062 0.58223757  0.102041984 -0.112100158  0.102076668 -0.108109159  0.754300503 -0.208995413
5100045000.000000  0.145511613 0.580964193  0.0088166904 -0.142394059  0.0114000641 -0.139469953  0.766986737 -0.0589306475
5130043500.000000  0.00469285064 0.568198454  -0.0793851907 -0.0950996437  -0.0760207006 -0.0948337816  0.755788568 0.138330656
5160042000.000000  -0.105686476 0.568225446  -0.105414175 -0.0161048489  -0.103041926 -0.0180420146  0.728026377 0.297557189
5190040500.000000  -0.183342563 0.513539773  -0.0816738239 0.0641678349  -0.0815365001 0.0610881876  0.616891373 0.423879907
5220039000.000000  -0.281596978 0.426210811  -6.9551394e-05 0.0987926205  -0.0024095003 0.09683379  0.458558945 0.585266831
5250037500.000000  -0.364165271 0.357410325  0.0663841911 0.0726128798  0.062694014 0.0729341592  0.344300909 0.71395444
5280036000.000000  -0.385033502 0.283800621  0.113168151 0.0178118237  0.109813275 0.0209287638  0.215624409 0.749997323
5310034500.000000  -0.365129308 0.148213817  0.109010396 -0.0728350249  0.10858795 -0.0675225141  0.0352454163 0.748315648
5340033000.000000  -0.392660114 -0.0121226128  0.0359978651 -0.126553435  0.0391328662 -0.121964737  -0.13822835 0.753411911
5370031500.000000  -0.414505128 -0.102590392  -0.0465646644 -0.12169397  -0.0411812988 -0.11984031  -0.270352114 0.716173116
5400030000.000000  -0.36686881 -0.18068633  -0.107111527 -0.0572243836  -0.102009502 -0.0592443465  -0.406672938 0.615867801
5430028500.000000  -0.321419423 -0.28216476  -0.0961314542 0.0161424241  -0.0939143207 0.0123366655  -0.550127967 0.518820686
5460027000.000000  -0.288873045 -0.343465993  -0.0613991285 0.0565339601  -0.0616669562 0.0528598784  -0.624594764 0.418049797
5490025500.000000  -0.218278447 -0.363792069  -0.00864120603 0.0780306002  -0.0110519662 0.0757028342  -0.637293055 0.260460965
5520024000.000000  -0.110782614 -0.397652522  0.047865818 0.0566659356  0.0449858172 0.0567224824  -0.645259451 0.059024023
5550022500.000000  -0.026057564 -0.43693535  0.0797170382 0.00586369304  0.0777568788 0.00770810444  -0.640080064 -0.108307166
5580021000.000000  0.0415164582 -0.430303413  0.0695008081 -0.0675948511  0.0694001244 -0.0646353743  -0.540158826 -0.240031166
5610019500.000000  0.134300599 -0.389286921  -0.00356452673 -0.107762342  -0.00147003261 -0.105440982  -0.370575218 -0.42253567
5640018000.000000  0.231472609 -0.366019757  -0.0712253395 -0.0857602059  -0.0682312177 -0.0851028931  -0.246954209 -0.594814263
5670016500.000000  0.285693836 -0.346427969  -0.118875003 -0.0372851203  -0.115541008 -0.0384338909  -0.122846864 -0.649799216
5700015000.000000  0.297802339 -0.2917738  -0.129302191 0.043838561  -0.127056394 0.0407096351  0.0615467578 -0.633625748
5730013500.000000  0.316604552 -0.20294808  -0.0820822373 0.110529071  -0.0818909694 0.106604412  0.245521144 -0.606287807
5760012000.000000  0.344737797 -0.129874438  -0.00868617138 0.137455104  -0.0108762914 0.133900344  0.371492091 -0.528436133
5790010500.000000  0.345497128 -0.0756794969  0.0699127936 0.113504899  0.0663619714 0.11186287  0.473380367 -0.373962858
5820009000.000000  0.33069757 -0.0149021809  0.113380375 0.0489868997  0.109693091 0.0494921075  0.572943185 -0.20165297
5850007500.000000  0.324466136 0.0359707252  0.111483105 -0.0277125088  0.109114777 -0.0252182506  0.624101242 -0.056786035
5880006000.000000  0.312596596 0.0555678185  0.0557681851 -0.0880564188  0.0559787689 -0.0849895142  0.602065587 0.0967401108
5910004500.000000  0.277263028 0.0746722794  -0.0204360794 -0.0903677902  -0.0182778295 -0.0885626695  0.572219757 0.253229513
5940003000.000000  0.254846406 0.104250983  -0.0808825568 -0.0480767095  -0.0779445209 -0.0484999014  0.519489209 0.349895156
5970001500.000000  0.25291361 0.110958989  -0.0992646229 0.0347542905  -0.0974839309 0.0317213304  0.39644469 0.418490538
6000000000.000000  0.230640908 0.086243373  -0.0442935152 0.105543969  -0.0454710653 0.102029494  0.256402927 0.519685619
