! 2-port S-parameters written by miniscope-char acquisition
! instrument: Pico Technology Ltd,PicoVNA-106,10080,5.3.4
! transport: scpi
! endpoint: 127.0.0.1:5025
! demo: false
! calibration: software
# HZ S RI R 50
300000.000000  0.0259357439 0.0146462327  0.976490063 0.00180674042  0.963397957 0.00672512944  0.0266684111 0.0072115522
30298500.000000  0.0242134471 -0.0650615995  0.305791625 -0.873528083  0.305483357 -0.87520371  0.0149521645 -0.0350373807
60297000.000000  -0.0552603498 0.0119811141  -0.659016905 -0.599131395  -0.655924044 -0.602384466  -0.0270167347 0.0432487601
90295500.000000  0.0346915752 0.00682245121  -0.793431251 0.350433193  -0.795984536 0.351075705  0.0153850904 0.0266833167
120294000.000000  -0.0568812449 -0.0471188976  0.00223407983 0.847119803  0.00111017318 0.847667908  -0.0578049993 0.0245925663
150292500.000000  -0.0305645534 0.058074653  0.752741384 0.336629597  0.753252371 0.34083252  -0.0351879607 0.0740621064
180291000.000000  0.00619328609 -0.0458548215  0.604311112 -0.542505375  0.609071346 -0.540531466  -0.0490682644 0.0110325172
210289500.000000  -0.0937870892 0.00719259637  -0.237329247 -0.756726271  -0.234061556 -0.759328261  -0.0997886469 0.0490359023
240288000.000000  0.0151821869 0.0131616299  -0.778331434 -0.097014378  -0.780300913 -0.101187019  -0.050699724 0.0199571869
270286500.000000  -0.0665264969 -0.0700366487  -0.401163131 0.655432076  -0.404611181 0.653940685  -0.114286135 -0.0173575882
300285000.000000  -0.0515333239 0.0231314902  0.423766871 0.632116125  0.421643656 0.635555543  -0.0789807415 0.0156768579
330283500.000000  -0.00821991755 -0.0681934759  0.739277405 -0.12613753  0.741963333 -0.122303868  -0.0583957306 -0.06963379
360282000.000000  -0.0778168287 -0.0229561373  0.193245109 -0.714277346  0.196777068 -0.714012404  -0.0927305501 -0.0579713917
390280500.000000  0.0303164746 -0.0292985769  -0.563481547 -0.463810563  -0.563085973 -0.468052886  -0.028028007 -0.0797541532
420279000.000000  -0.0327828399 -0.084554381  -0.649894439 0.31266112  -0.652847023 0.309674209  -0.0505415102 -0.107305772
450277500.000000  0.0293017795 -0.00611536075  0.017481047 0.720538099  0.0137939127 0.72232367  0.0210727845 -0.0727199094
480276000.000000  0.0519778486 -0.112486501  0.642386187 0.279774196  0.642795397 0.283267732  0.0360406137 -0.146007761
510274500.000000  -0.0106952835 -0.0373299563  0.520893507 -0.46441613  0.522930156 -0.462683202  0.0153285334 -0.081381751
540273000.000000  0.100115135 -0.0470865677  -0.205119282 -0.659556461  -0.202100321 -0.662522926  0.109160977 -0.0821021169
570271500.000000  0.0268988273 -0.0801737195  -0.675360532 -0.0921444673  -0.675762961 -0.0951357268  0.0630249963 -0.0920520882
600270000.000000  0.0864810904 0.0208874909  -0.356952528 0.571445901  -0.359522885 0.571027539  0.109377475 -0.00298236396
630268500.000000  0.103358821 -0.0636522392  0.358815981 0.559557286  0.357429495 0.561787091  0.128044096 -0.0483004228
660267000.000000  0.0388728669 0.0264399676  0.655004424 -0.0929755959  0.656481402 -0.0908545918  0.0698091342 0.0280610774
690265500.000000  0.122911773 0.0326972173  0.190193709 -0.622263794  0.192839375 -0.623073279  0.123800593 0.0458002231
720264000.000000  0.0483803014 0.0287246121  -0.485201152 -0.433636578  -0.484815711 -0.435837633  0.0278329732 0.0369029074
750262500.000000  0.0931145412 0.0987196106  -0.590430935 0.260652707  -0.592358415 0.25962721  0.0240414169 0.142048417
780261000.000000  0.057062329 0.0289851863  -0.0158076252 0.642516352  -0.0181947563 0.643599186  0.019698847 0.0832594426
810259500.000000  0.0120046988 0.132283593  0.56448073 0.273464439  0.565208065 0.274807097  -0.0870201862 0.126523117
840258000.000000  0.0621910546 0.0679602616  0.488170633 -0.390305885  0.489780922 -0.38989285  -0.0535185985 0.124098583
870256500.000000  -0.0808819571 0.0876449654  -0.154767176 -0.599073757  -0.153096654 -0.600789895  -0.154350374 0.0705618952
900255000.000000  -0.00199217593 0.147456236  -0.598117249 -0.119186078  -0.599314765 -0.120730292  -0.151637318 0.11734251
930253500.000000  -0.0746257799 0.0277090498  -0.353247193 0.494134709  -0.354565929 0.494147282  -0.154579779 -0.00135118769
960252000.000000  -0.125306895 0.132184977  0.287409713 0.518435669  0.286426355 0.521078153  -0.236410678 0.0013970599
990250500.000000  -0.0535753832 0.0232882056  0.594498233 -0.0425436332  0.595920759 -0.0399288247  -0.158986265 -0.0494391969
1020249000.000000  -0.210674113 0.0155945982  0.205964966 -0.540664147  0.20857183 -0.541451325  -0.223869436 -0.15213127
1050247500.000000  -0.0936690825 0.0643594082  -0.398808334 -0.422264485  -0.399095585 -0.424489224  -0.183516913 -0.108264262
1080246000.000000  -0.14675984 -0.110787649  -0.537224765 0.19022807  -0.538491788 0.189659745  -0.118571908 -0.227451713
1110244500.000000  -0.180056362 -0.00995991822  -0.063281621 0.560934297  -0.0642918889 0.562627642  -0.143545146 -0.208651144
1140243000.000000  -0.0557132531 -0.142872519  0.485069525 0.27840626  0.485549867 0.280000066  0.00203935112 -0.238396138
1170241500.000000  -0.188558673 -0.165578968  0.4517207 -0.304493529  0.453847551 -0.303822709  -0.0246238276 -0.309116476
1200240000.000000  -0.0363824027 -0.0999283071  -0.0944256868 -0.547665142  -0.0926284628 -0.550119796  0.0553478837 -0.203650225
1230238500.000000  -0.0439520429 -0.265952376  -0.519473777 -0.136627866  -0.519591504 -0.139730971  0.151915715 -0.277697592
1260237000.000000  -0.051668908 -0.143832554  -0.350594925 0.417055245  -0.353666829 0.415856504  0.111271328 -0.190034467
1290235500.000000  0.105577412 -0.240751333  0.233819642 0.472012666  0.232099598 0.473909619  0.26636542 -0.131973911
1320234000.000000  0.00331042037 -0.238614066  0.525851483 0.000878120017  0.526726538 0.00259073118  0.220536952 -0.159341915
1350232500.000000  0.158144576 -0.140371294  0.203452852 -0.483449955  0.204610898 -0.483658825  0.248923969 0.0202249015
1380231000.000000  0.157439006 -0.253014339  -0.333830738 -0.386774011  -0.333635809 -0.387596897  0.316557977 -0.0157574937
1410229500.000000  0.144349501 -0.0950403475  -0.501212957 0.151777114  -0.501572294 0.151925984  0.176276825 0.0810066435
1440228000.000000  0.281821013 -0.141361936  -0.0718972655 0.495960743  -0.0722985874 0.49672173  0.262404878 0.192698389
1470226500.000000  0.165608785 -0.106018239  0.42532052 0.28914386  0.425437171 0.289982794  0.163801094 0.120662482
1500225000.000000  0.270525715 0.0153529879  0.427037778 -0.268327369  0.427994249 -0.267904639  0.0638373743 0.272894652
1530223500.000000  0.222326072 -0.0377620121  -0.0518042556 -0.504665372  -0.0500940539 -0.505603792  0.0763525476 0.225209645
1560222000.000000  0.19808395 0.132959251  -0.47817004 -0.151540955  -0.477965746 -0.15368967  -0.115566951 0.236903897
1590220500.000000  0.252493588 0.0829830187  -0.345003087 0.351788331  -0.347106029 0.350855382  -0.102442132 0.287078038
1620219000.000000  0.0898898088 0.158516135  0.183406252 0.461580846  0.181930653 0.462643569  -0.199834417 0.151415941
1650217500.000000  0.167451241 0.23828219  0.478851388 0.0372380061  0.479455993 0.0398066036  -0.289336718 0.190043937
1680216000.000000  0.0453879151 0.153751677  0.240641863 -0.428015221  0.243597032 -0.427671127  -0.246309482 0.0605333181
1710214500.000000  -0.00403086071 0.294740732  -0.276215315 -0.383006169  -0.275216391 -0.384770375  -0.36677678 -0.0341022253
1740213000.000000  0.0122862596 0.164665984  -0.471432979 0.0816281131  -0.472607889 0.0797448364  -0.309271218 -0.0629419522
1770211500.000000  -0.200105341 0.196233959  -0.111266464 0.447372794  -0.11294036 0.447794244  -0.319168178 -0.224290411
1800210000.000000  -0.115549681 0.221067818  0.348035834 0.301970622  0.348400489 0.303212236  -0.297081208 -0.212648424
1830208500.000000  -0.253249715 0.0612179746  0.405282514 -0.201309302  0.405962573 -0.200610164  -0.15331963 -0.350068886
1860207000.000000  -0.28059957 0.168546168  0.0076943823 -0.436249604  0.00837380984 -0.436456724  -0.181610067 -0.408612719
1890205500.000000  -0.205360822 -0.0299385629  -0.405215716 -0.181020629  -0.405199463 -0.182090916  -0.0164411825 -0.380172569
1920204000.000000  -0.383826303 -0.0432131859  -0.317854837 0.266186691  -0.318662127 0.265885413  0.0421386247 -0.496254172
1950202500.000000  -0.215489248 -0.0317747394  0.104316106 0.420109557  0.10327143 0.420475168  0.0839360901 -0.392543385
1980201000.000000  -0.26821269 -0.255555029  0.405759845 0.0643857245  0.405991704 0.0660288025  0.260269532 -0.409244604
2010199500.000000  -0.261198737 -0.155695871  0.247052928 -0.336413458  0.248781606 -0.335498016  0.240302475 -0.36315868
2040198000.000000  -0.0904986848 -0.323939793  -0.218499478 -0.344370534  -0.215773705 -0.346569499  0.395729262 -0.22639983
2070196500.000000  -0.185666357 -0.347357241  -0.397619824 0.0308325672  -0.398136251 0.0274537527  0.414748628 -0.247713449
2100195000.000000  0.0206462658 -0.298415385  -0.123776401 0.39294362  -0.127314216 0.392213581  0.394892302 -0.0396503538
2130193500.000000  0.0323914315 -0.452166648  0.278862025 0.267082769  0.276647214 0.269428926  0.500515515 0.00242255819
2160192000.000000  0.0731191835 -0.315984962  0.377697822 -0.14871034  0.378943926 -0.145686285  0.354619988 0.0861411383
2190190500.000000  0.238313206 -0.392559192  0.013886921 -0.378822528  0.0167694612 -0.379087041  0.394698251 0.28025474
2220189000.000000  0.170495739 -0.329808126  -0.341773593 -0.194548685  -0.340739645 -0.196818828  0.326802299 0.247755186
2250187500.000000  0.358763571 -0.208623766  -0.299712789 0.240160741  -0.302121848 0.238942327  0.171466148 0.415822569
2280186000.000000  0.352523384 -0.265358871  0.064565813 0.374277984  0.0631541667 0.375573798  0.188706471 0.417451556
2310184500.000000  0.355831664 -0.0694781866  0.383542331 0.0867963686  0.384468209 0.0888228017  -0.0438639012 0.362266718
2340183000.000000  0.453155301 -0.0702311522  0.237408506 -0.289980025  0.239185613 -0.289279756  -0.114642127 0.447799249
2370181500.000000  0.34428767 0.0451436027  -0.175799108 -0.348325567  -0.173865668 -0.349656389  -0.203538428 0.278619956
2400180000.000000  0.443852191 0.163826109  -0.364942129 0.010616629  -0.365497874 0.00894558689  -0.391705638 0.285679952
2430178500.000000  0.336590759 0.142494872  -0.163717174 0.344883619  -0.166334042 0.344063805  -0.340545904 0.183769376
2460177000.000000  0.28688235 0.336948068  0.24052196 0.272992418  0.23888897 0.274746867  -0.481564809 -0.00958091997
2490175500.000000  0.288422508 0.290651901  0.355706574 -0.0770950782  0.356552356 -0.0742938392  -0.460849867 -0.0234307631
2520174000.000000  0.0941515494 0.373910954  0.0637294729 -0.353387432  0.0660983118 -0.352998967  -0.383815789 -0.251726566
2550172500.000000  0.12435773 0.413168708  -0.270257725 -0.213924353  -0.268669748 -0.215696362  -0.417214743 -0.320418559
2580171000.000000  -0.0733541805 0.312434183  -0.308013269 0.172929601  -0.309305762 0.17100447  -0.241238228 -0.405394112
2610169500.000000  -0.150259227 0.435596402  0.0154277022 0.327981017  0.0134241876 0.328466892  -0.214020646 -0.53890116
2640168000.000000  -0.155498463 0.266978286  0.319980422 0.137014882  0.319713418 0.138959986  -0.0822267435 -0.489933528
2670166500.000000  -0.372697324 0.247047984  0.239008865 -0.221121215  0.241287712 -0.220023904  0.0828691713 -0.584699838
2700165000.000000  -0.302804968 0.206505979  -0.0856870215 -0.321278788  -0.0836110424 -0.322634651  0.134828621 -0.525488235
2730163500.000000  -0.43438301 -0.000603626509  -0.310216083 -0.0369430931  -0.310742583 -0.0396785104  0.343133295 -0.478668883
2760162000.000000  -0.450087478 0.0407099982  -0.17921485 0.247971308  -0.181620233 0.246688278  0.381993803 -0.470323348
2790160500.000000  -0.340769043 -0.182841758  0.172724084 0.262252444  0.17028946 0.264356487  0.481870739 -0.295683877
2820159000.000000  -0.450210674 -0.258529456  0.293594912 -0.0287464902  0.294205949 -0.0263514892  0.57585774 -0.27074801
2850157500.000000  -0.272725771 -0.275491078  0.10252674 -0.299697202  0.105477836 -0.299027025  0.523345233 -0.107838326
2880156000.000000  -0.242566618 -0.474565501  -0.214003237 -0.199686321  -0.212695737 -0.201044248  0.621504065 0.0385761776
2910154500.000000  -0.167181608 -0.416001644  -0.284051858 0.10823704  -0.284844768 0.10690687  0.528225008 0.11460467
2940153000.000000  0.0136538797 -0.547759476  -0.00135506766 0.280559172  -0.00144952434 0.280079375  0.508445108 0.344630784
2970151500.000000  -0.00129796981 -0.535615812  0.245500575 0.143047894  0.244958794 0.142549569  0.473261306 0.359412097
3000150000.000000  0.210082378 -0.461063889  0.226539986 -0.184516169  0.225868849 -0.184145852  0.259622027 0.488353529
3030148500.000000  0.266119485 -0.525410699  -0.0492891866 -0.272887933  -0.0490342491 -0.27248069  0.228713731 0.570962723
3060147000.000000  0.339954693 -0.364383092  -0.285438403 -0.065988099  -0.285661526 -0.0660385567  0.0174217514 0.506734952
3090145500.000000  0.488699884 -0.36324266  -0.167858256 0.207696595  -0.168403717 0.208159146  -0.13480539 0.595143461
3120144000.000000  0.456729449 -0.251291282  0.11997719 0.258795394  0.121004473 0.259344536  -0.212404629 0.4514339
3150142500.000000  0.594120527 -0.117365592  0.263490792 -0.0100883896  0.264332627 -0.0109512538  -0.449849273 0.380021221
3180141000.000000  0.566171776 -0.092736711  0.12745546 -0.240621212  0.126727682 -0.24144656  -0.442677996 0.309801479
3210139500.000000  0.559423399 0.1096676  -0.177986742 -0.203882656  -0.179103573 -0.203263324  -0.533781395 0.0432497175
3240138000.000000  0.587040677 0.145590084  -0.255269898 0.0519084006  -0.255037208 0.0531903965  -0.594351262 -0.0187729181
3270136500.000000  0.452766344 0.280684615  -0.0495069076 0.267213023  -0.0484730407 0.267032309  -0.468708095 -0.230942324
3300135000.000000  0.477158721 0.389560439  0.195711158 0.153540513  0.195639689 0.152796429  -0.505541379 -0.397637819
3330133500.000000  0.320558921 0.379617937  0.243341249 -0.117408928  0.243045482 -0.116767728  -0.343025872 -0.430916328
3360132000.000000  0.21223648 0.540884479  -0.0117815837 -0.250966437  -0.0105236922 -0.250377118  -0.207408487 -0.611490308
3390130500.000000  0.149494875 0.485452212  -0.234860041 -0.113881607  -0.233425489 -0.11545672  -0.113968381 -0.59091335
3420129000.000000  -0.082949471 0.525685494  -0.1828828 0.172270805  -0.184044451 0.170307844  0.124747565 -0.625216951
3450127500.000000  -0.109091185 0.524394622  0.0604721112 0.239958818  0.0580977812 0.239966532  0.204255014 -0.62642322
3480126000.000000  -0.307387491 0.380933867  0.247356292 0.0281835534  0.246714473 0.0303877026  0.392467597 -0.511919163
3510124500.000000  -0.40492552 0.410494782  0.133542401 -0.188585661  0.135058675 -0.187010659  0.510084528 -0.501302743
3540123000.000000  -0.410511879 0.203220562  -0.12720414 -0.212566827  -0.125148244 -0.213626188  0.56318503 -0.331901441
3570121500.000000  -0.576981451 0.10167508  -0.224852426 0.0225758522  -0.225065405 0.0204019145  0.698307482 -0.221458472
3600120000.000000  -0.487855516 0.0142102341  -0.087938649 0.223406313  -0.0900108823 0.222587993  0.668784221 -0.0977819282
3630118500.000000  -0.523719771 -0.229998691  0.164785997 0.152513438  0.16344894 0.154370645  0.715652395 0.107069131
3660117000.000000  -0.496086584 -0.251379375  0.217099261 -0.0689579441  0.21858749 -0.066911186  0.68194212 0.185845771
3690115500.000000  -0.329729002 -0.441948245  0.0102479342 -0.22817302  0.0124131739 -0.229778835  0.578394726 0.387071209
3720114000.000000  -0.329848484 -0.531800878  -0.183988818 -0.115477585  -0.185074316 -0.117320131  0.548357681 0.484092312
3750112500.000000  -0.124728804 -0.537887901  -0.18806589 0.13345581  -0.189754715 0.134189461  0.339777192 0.563275769
3780111000.000000  -0.0278546367 -0.656200519  0.0325880113 0.205959889  0.0332857762 0.207306966  0.23423821 0.696476546
3810109500.000000  0.0794634277 -0.560588138  0.214769064 0.0656774964  0.215883969 0.0654271581  0.0719385383 0.645591804
3840108000.000000  0.280829537 -0.589821899  0.13032884 -0.159549407  0.130147166 -0.160350573  -0.151247752 0.69961391
3870106500.000000  0.309957322 -0.528374988  -0.0769136535 -0.199673379  -0.0775318342 -0.19996282  -0.238219846 0.629717229
3900105000.000000  0.491610146 -0.396381184  -0.209283846 0.00325421137  -0.209653333 0.00366541011  -0.460719553 0.495140683
3930103500.000000  0.552657939 -0.375969428  -0.0986085419 0.178048072  -0.0986034254 0.178327775  -0.538420378 0.425671904
3960102000.000000  0.597432779 -0.190472143  0.136913567 0.163733684  0.136842639 0.164156244  -0.599671204 0.159252984
3990100500.000000  0.688071926 -0.118821586  0.19281132 -0.0402969832  0.193121192 -0.0396469774  -0.700363352 0.0211292889
4020099000.000000  0.628449514 0.023947669  0.0476149372 -0.204613903  0.0484733092 -0.204772545  -0.590546493 -0.170960664
4050097500.000000  0.684088842 0.182966393  -0.148543136 -0.114527018  -0.14816831 -0.11616401  -0.581405448 -0.404465991
4080096000.000000  0.612841908 0.246235313  -0.179633126 0.0803979667  -0.181582593 0.0795920602  -0.443371214 -0.472519326
4110094500.000000  0.547264595 0.429129817  0.011025262 0.184945028  0.0101968878 0.186744276  -0.238577814 -0.663091793
4140093000.000000  0.500853081 0.472637334  0.164770853 0.0853193307  0.165838716 0.0860662168  -0.129716381 -0.707519143
4170091500.000000  0.319573957 0.577947804  0.142098945 -0.125006821  0.142233884 -0.125399416  0.137202715 -0.693174655
4200090000.000000  0.263548543 0.657966408  -0.0328486812 -0.171358479  -0.0329211016 -0.170952558  0.288868921 -0.722809316
4230088500.000000  0.0811737702 0.608879121  -0.183381861 -0.0457183738  -0.182874376 -0.045698652  0.429777817 -0.576066406
4260087000.000000  -0.0825654663 0.677483185  -0.107422194 0.136945864  -0.107009382 0.136525603  0.61585444 -0.491332428
4290085500.000000  -0.183978377 0.579039478  0.0801300422 0.166223695  0.0798023717 0.165645594  0.665392552 -0.335844483
4320084000.000000  -0.402593885 0.531191967  0.169139709 -0.0106319825  0.1684979 -0.0106383462  0.787257557 -0.140531193
4350082500.000000  -0.44581883 0.456340278  0.0778246978 -0.154039542  0.0773693624 -0.153478089  0.790818723 -0.0180106234
4380081000.000000  -0.579033261 0.241199762  -0.115650484 -0.126219499  -0.115475736 -0.125632963  0.759457043 0.205418147
4410079500.000000  -0.651818502 0.164572484  -0.158994134 0.0351688438  -0.158517696 0.03536291  0.740774158 0.330421907
4440078000.000000  -0.602397784 -0.0532285033  -0.0293398122 0.168305937  -0.0287922413 0.16833702  0.597511477 0.476151041
4470076500.000000  -0.650335486 -0.211030706  0.124374927 0.0921054096  0.124817551 0.0918234789  0.521808185 0.621610417
4500075000.000000  -0.515900703 -0.320917815  0.143726217 -0.0791189636  0.143682555 -0.0799646077  0.360421817 0.670195316
4530073500.000000  -0.442353322 -0.52354917  -0.0165971349 -0.148250965  -0.0173558867 -0.14840409  0.193273648 0.782197398
4560072000.000000  -0.334606593 -0.556465595  -0.145445854 -0.0588078814  -0.14550389 -0.0583232677  0.056120816 0.775010446
4590070500.000000  -0.129370239 -0.673198803  -0.103110504 0.109645494  -0.102817971 0.10947056  -0.175229516 0.767289493
4620069000.000000  -0.0388073031 -0.713155657  0.0386788127 0.141234639  0.0384252381 0.140822511  -0.305431495 0.729405696
4650067500.000000  0.16515064 -0.670562497  0.147478479 0.0162293815  0.146970861 0.0162990279  -0.484486901 0.570592018
4680066000.000000  0.29727766 -0.685432046  0.0771980459 -0.11136426  0.0770629358 -0.110955055  -0.631665722 0.480190563
4710064500.000000  0.407242418 -0.556407429  -0.0764190875 -0.125841714  -0.0760142826 -0.125572798  -0.677617757 0.282085003
4740063000.000000  0.572362405 -0.489354294  -0.134784347 0.016696977  -0.134624096 0.016499342  -0.780287253 0.0837465249
4770061500.000000  0.612305735 -0.38284472  -0.0538725196 0.133782499  -0.0539329671 0.133591545  -0.737430575 -0.0845446311
4800060000.000000  0.716496117 -0.221737887  0.0965464328 0.0948411766  0.0964577222 0.0948313189  -0.683166366 -0.347174937
4830058500.000000  0.742291431 -0.126487746  0.128497716 -0.0346410359  0.12822979 -0.0345944552  -0.594711498 -0.487926571
4860057000.000000  0.737974034 0.0623486642  0.0129802961 -0.129786745  0.0130685261 -0.129434877  -0.378109658 -0.651677661
4890055500.000000  0.753514205 0.175574662  -0.0992722983 -0.0709186738  -0.0989905019 -0.0707267556  -0.229825725 -0.761251245
4920054000.000000  0.658573965 0.306532356  -0.112376451 0.0675421352  -0.112181603 0.0671521979  0.0109136891 -0.74172984
4950052500.000000  0.617924625 0.451538354  0.00845279781 0.120328331  0.00814806805 0.119823901  0.239128394 -0.765766075
4980051000.000000  0.505076754 0.511314262  0.115863614 0.0528230777  0.115334042 0.0530700816  0.391192986 -0.661604583
5010049500.000000  0.37149145 0.635128937  0.0869624899 -0.0761864708  0.0870159428 -0.075527811  0.595255442 -0.534441524
5040048000.000000  0.268577017 0.667554298  -0.0240973746 -0.111395201  -0.0235819436 -0.111371186  0.684800449 -0.403725958
5070046500.000000  0.070594048 0.699720398  -0.107785379 -0.0118382552  -0.107584772 -0.0124066614  0.770153171 -0.19169852
5100045000.000000  -0.0459046001 0.7241291  -0.0590937081 0.0873478088  -0.0597013947 0.0869635741  0.815001597 -0.0496750782
5130043500.000000  -0.205550199 0.639555009  0.0641888905 0.0974187418  0.0636723969 0.0978922318  0.765124814 0.145945971
5160042000.000000  -0.361110746 0.607058198  0.110806008 -0.00795405385  0.111199396 -0.00736727811  0.75354304 0.328820358
5190040500.000000  -0.443938031 0.481825827  0.0482800621 -0.102840355  0.0487148985 -0.102852177  0.652460274 0.45698824
5220039000.000000  -0.58274714 0.350984005  -0.0598939744 -0.0762844401  -0.0598659877 -0.0766691305  0.539003553 0.615316882
5250037500.000000  -0.610800966 0.228348658  -0.094824349 0.0206011571  -0.0950909199 0.0203558139  0.41379598 0.68864778
5280036000.000000  -0.641831031 0.00800169464  -0.00720260111 0.098512888  -0.00767953265 0.0988124873  0.225962701 0.759298974
5310034500.000000  -0.65374478 -0.122653679  0.0904325173 0.0593406414  0.0903324046 0.0599762999  0.0864459948 0.794330624
5340033000.000000  -0.547459951 -0.294695804  0.104599468 -0.058914492  0.10525834 -0.0584269082  -0.0991710345 0.7560102
5370031500.000000  -0.488995839 -0.457421451  0.00827800068 -0.112381201  0.00895577627 -0.112633825  -0.268487985 0.734882748
5400030000.000000  -0.350379668 -0.535313275  -0.0900633156 -0.0572814571  -0.0900391605 -0.0579202856  -0.405504638 0.626539112
5430028500.000000  -0.2056901 -0.641956716  -0.0734317353 0.0507723593  -0.0738705495 0.0506512881  -0.567448755 0.511112753
5460027000.000000  -0.0726433754 -0.647616261  0.0239988329 0.0925092509  0.0239108899 0.0929800181  -0.637079326 0.362590308
5490025500.000000  0.126538639 -0.653031654  0.101297097 0.00945001829  0.101802533 0.00957142159  -0.715730409 0.146755914
5520024000.000000  0.245511628 -0.638755203  0.0705019957 -0.0850326316  0.070858219 -0.0854728887  -0.736084111 -0.010386014
5550022500.000000  0.383342683 -0.539331134  -0.0362332702 -0.104315379  -0.0365456706 -0.104625937  -0.664076482 -0.217706172
5580021000.000000  0.49635633 -0.47110965  -0.09365802 -0.0270734418  -0.0939837269 -0.0269635365  -0.59977887 -0.392637176
5610019500.000000  0.557601579 -0.341563244  -0.0557486292 0.0660063877  -0.0557714377 0.0663055602  -0.442271794 -0.511695655
5640018000.000000  0.639204232 -0.226748572  0.0337138979 0.0657378775  0.033982099 0.0658289009  -0.284976964 -0.631795826
5670016500.000000  0.642685412 -0.119086295  0.0848032572 -0.00648299265  0.0850959315 -0.00684477659  -0.11802089 -0.633211715
5700015000.000000  0.647637035 0.0273607036  0.0315007109 -0.0851033082  0.0313763509 -0.0855392777  0.112579218 -0.623550208
5730013500.000000  0.63009285 0.121360466  -0.0562679701 -0.0801323158  -0.0566643135 -0.0803563629  0.263108272 -0.583853409
5760012000.000000  0.558744315 0.240825794  -0.097052118 0.00937823092  -0.097488318 0.00947077179  0.420689075 -0.456245357
5790010500.000000  0.509518705 0.338913001  -0.0415121255 0.0799188616  -0.0414897366 0.0803183385  0.546174687 -0.348880543
5820009000.000000  0.40554378 0.401745565  0.0553367845 0.065503621  0.0555889404 0.0656098366  0.601106412 -0.178994252
5850007500.000000  0.310438708 0.485057095  0.0743676102 -0.0247644333  0.0746515339 -0.0248408907  0.663399851 -0.0181509462
5880006000.000000  0.212676558 0.491093471  0.00384556929 -0.0884471723  0.00396499069 -0.0887030766  0.632732057 0.119588083
5910004500.000000  0.0626244689 0.518593061  -0.0842359111 -0.0396642063  -0.0843831223 -0.0399306028  0.588919122 0.290824004
5940003000.000000  -0.0261252795 0.518228971  -0.085904829 0.0580389312  -0.086245712 0.0578914678  0.527386316 0.397804995
5970001500.000000  -0.16172194 0.451413194  0.0122564327 0.104272206  0.0118842124 0.104549883  0.403764423 0.502425789
6000000000.000000  -0.269344192 0.416828195  0.0938009174 0.0421836985  0.0938729876 0.0428592599  0.298344211 0.58224394
