! 2-port S-parameters written by miniscope-char acquisition
! instrument: Pico Technology Ltd,PicoVNA-106,10080,5.3.4
! transport: scpi
! endpoint: 127.0.0.1:5025
! demo: false
! calibration: user
! calibration_file: June 2026 Short cable calibration.calx
# HZ S RI R 50
300000.000000  0.0053159091 0.00356891126  0.994199894 0.0035365078  0.988284706 0.0106654788  0.00489704714 -0.00135314089
30298500.000000  0.0138945387 0.0283005161  0.985790719 0.0659664439  0.98599218 0.0686417594  0.0111314495 0.0291580903
60297000.000000  0.0176699819 0.0470913564  0.974000093 0.14049512  0.973433731 0.143400007  0.00758436264 0.0485984973
90295500.000000  0.0179388867 0.0640819491  0.957300373 0.212454588  0.956942909 0.215857186  -0.00420932718 0.0640891389
120294000.000000  0.0139079152 0.0789758488  0.936293585 0.285556654  0.934585716 0.287320673  -0.0223387779 0.0740654885
150292500.000000  0.0113232696 0.0903587724  0.906439048 0.352188437  0.906585039 0.35502316  -0.0405255791 0.078048156
180291000.000000  0.0112872386 0.0995662451  0.875074049 0.420006727  0.873742059 0.423837455  -0.0574715897 0.0759315185
210289500.000000  0.0113290657 0.103103539  0.839486228 0.485694949  0.837646999 0.48695987  -0.0734686792 0.0665369542
240288000.000000  0.0135378712 0.105569836  0.796656097 0.547766926  0.796785358 0.551451784  -0.0809751691 0.0538536136
270286500.000000  0.014389065 0.103670648  0.753388427 0.607498239  0.750832792 0.609343604  -0.0873623738 0.0337853189
300285000.000000  0.0166716371 0.0980275277  0.704022598 0.661877648  0.702612319 0.663193833  -0.0895663621 0.0115242172
330283500.000000  0.0214430954 0.089667293  0.651616249 0.711523794  0.650114287 0.714873525  -0.0844629549 -0.011608213
360282000.000000  0.0305067594 0.0755364226  0.595982056 0.757560095  0.592914751 0.758198018  -0.0708310911 -0.0370363578
390280500.000000  0.0439622531 0.0607399834  0.537427427 0.797440751  0.536222886 0.799608156  -0.0478837883 -0.0602731868
420279000.000000  0.0584457336 0.0472587745  0.476961117 0.833628217  0.474935977 0.836443584  -0.0172005943 -0.0778761284
450277500.000000  0.0795216293 0.0323509874  0.416637966 0.870317694  0.413540514 0.871125259  0.0234241208 -0.0932904786
480276000.000000  0.09050147 0.0208732993  0.345924944 0.892041062  0.343873001 0.892594696  0.0527461766 -0.0880741496
510274500.000000  0.107724502 0.00850083978  0.27723135 0.910858818  0.275803527 0.91201762  0.084826649 -0.0808195807
540273000.000000  0.117319909 -0.00784011024  0.208166782 0.931470496  0.204570517 0.933413931  0.11527288 -0.0668758841
570271500.000000  0.137872125 -0.0140104155  0.136539772 0.937656485  0.133319257 0.937861762  0.138193261 -0.0473201484
600270000.000000  0.149973635 -0.0230773325  0.0629509135 0.940729699  0.060763895 0.941517242  0.157906653 -0.0210051866
630268500.000000  0.159261946 -0.0317071238  -0.0109435292 0.938893993  -0.0138653994 0.938867194  0.169293568 0.00705740929
660267000.000000  0.166605444 -0.0356489686  -0.086909487 0.931997687  -0.0888343202 0.931841782  0.171177847 0.0365330721
690265500.000000  0.167258977 -0.0376539819  -0.161465953 0.919321672  -0.164280127 0.919408261  0.164144985 0.0677996852
720264000.000000  0.16305286 -0.0383741247  -0.23446372 0.902769235  -0.236721506 0.901731672  0.144761274 0.0952998973
750262500.000000  0.158101929 -0.0410594857  -0.301432251 0.88248553  -0.303319353 0.882384488  0.125845921 0.116828995
780261000.000000  0.137764568 -0.0588048488  -0.377181949 0.845880412  -0.379419553 0.844804388  0.0829709245 0.124142974
810259500.000000  0.10936681 -0.0586956441  -0.450770016 0.814194046  -0.452492676 0.813493127  0.0328395015 0.118118787
840258000.000000  0.0847398003 -0.0646163893  -0.5168935 0.785247806  -0.518067336 0.784073307  -0.0150445629 0.109405335
870256500.000000  0.0615002433 -0.0795806017  -0.576671567 0.748396805  -0.578290968 0.746798711  -0.0592320221 0.0847511394
900255000.000000  0.032857471 -0.0905865679  -0.627602048 0.704282365  -0.630258052 0.703013908  -0.0932958258 0.0456164856
930253500.000000  0.00333531198 -0.108166878  -0.674390255 0.65381894  -0.675547047 0.652025183  -0.124734873 0.00396804242
960252000.000000  -0.0308835454 -0.129770111  -0.71634113 0.600456858  -0.717737328 0.598315792  -0.144148487 -0.050276657
990250500.000000  -0.0649788356 -0.156353103  -0.752852567 0.543088432  -0.755565883 0.540429479  -0.152263639 -0.109866381
1020249000.000000  -0.0985013352 -0.187833367  -0.785173889 0.48184614  -0.787668906 0.479754882  -0.149793464 -0.174280124
1050247500.000000  -0.125716208 -0.218141311  -0.807711077 0.41764102  -0.809377692 0.415514656  -0.13418546 -0.237297167
1080246000.000000  -0.147242962 -0.246205442  -0.825378873 0.351596992  -0.82563759 0.349684495  -0.10333753 -0.292346628
1110244500.000000  -0.158673152 -0.270943684  -0.839512285 0.28457537  -0.839967521 0.282764924  -0.0620072333 -0.335360087
1140243000.000000  -0.167664173 -0.294230378  -0.850039663 0.215919411  -0.850193545 0.21337227  -0.0102963933 -0.367524895
1170241500.000000  -0.169935097 -0.316813114  -0.857388771 0.144245824  -0.857575397 0.141040731  0.0451079099 -0.383025282
1200240000.000000  -0.165696987 -0.33777678  -0.86121876 0.0725386975  -0.860745759 0.0679292464  0.102762023 -0.3850651
1230238500.000000  -0.15733 -0.351672538  -0.860186921 -0.00109163599  -0.859652429 -0.00386714308  0.158238311 -0.37486402
1260237000.000000  -0.146209403 -0.356613013  -0.853877053 -0.0725932611  -0.853661961 -0.0752709703  0.207034151 -0.347501383
1290235500.000000  -0.128333055 -0.354710164  -0.845796517 -0.145483594  -0.845579992 -0.145982411  0.247079506 -0.308027285
1320234000.000000  -0.106216368 -0.345027728  -0.835146826 -0.214080462  -0.834643666 -0.215699471  0.277899114 -0.258126508
1350232500.000000  -0.0839335226 -0.326292398  -0.823685719 -0.282727238  -0.822242131 -0.283932486  0.296854057 -0.20108307
1380231000.000000  -0.0678628856 -0.297823669  -0.807949047 -0.349723955  -0.80590454 -0.35108588  0.298429419 -0.138745901
1410229500.000000  -0.0581517555 -0.255922465  -0.786586195 -0.415592326  -0.785056832 -0.417096098  0.281769291 -0.0743198366
1440228000.000000  -0.0517280086 -0.204167771  -0.762479047 -0.478102374  -0.761399431 -0.480637004  0.243144291 -0.0119073255
1470226500.000000  -0.049720983 -0.14548362  -0.735259139 -0.536060811  -0.734087181 -0.537639182  0.183312386 0.0443648054
1500225000.000000  -0.0488442995 -0.080180559  -0.703029057 -0.589284013  -0.702208854 -0.590787979  0.105453438 0.0888128565
1530223500.000000  -0.0519226397 -0.0113797712  -0.664583879 -0.636144672  -0.663429888 -0.638194686  0.016724657 0.11557141
1560222000.000000  -0.059376334 0.0584706988  -0.619835344 -0.677985892  -0.617722921 -0.679035188  -0.0727126219 0.123960017
1590220500.000000  -0.0722186253 0.12734808  -0.567338602 -0.713146014  -0.564643331 -0.713814626  -0.161002045 0.111205741
1620219000.000000  -0.0913080054 0.191132192  -0.508155511 -0.742028037  -0.505301195 -0.742127775  -0.241553226 0.0782097084
1650217500.000000  -0.113911858 0.246205849  -0.442062598 -0.764590314  -0.439403541 -0.766763241  -0.310165157 0.0278334417
1680216000.000000  -0.143130675 0.293148462  -0.371071996 -0.783960182  -0.367440109 -0.784866329  -0.359494457 -0.0359119999
1710214500.000000  -0.178061741 0.325838531  -0.296964155 -0.799118335  -0.294088955 -0.800634468  -0.387832371 -0.108700939
1740213000.000000  -0.214488279 0.34239045  -0.220706708 -0.807417487  -0.217879548 -0.808567778  -0.398396455 -0.185240293
1770211500.000000  -0.248172288 0.345073274  -0.142406107 -0.810497352  -0.140023312 -0.811199957  -0.389296982 -0.263380297
1800210000.000000  -0.275452352 0.340438209  -0.0640754572 -0.809472909  -0.062230399 -0.810133337  -0.359789664 -0.339489501
1830208500.000000  -0.297333248 0.331876621  0.0128097098 -0.805426524  0.0145944672 -0.804896592  -0.308813685 -0.407216338
1860207000.000000  -0.312934897 0.31804214  0.0883825176 -0.797456674  0.0903244861 -0.796365855  -0.241888264 -0.455415828
1890205500.000000  -0.321707245 0.298510372  0.160509718 -0.786493984  0.162305194 -0.785736219  -0.163341259 -0.481482299
1920204000.000000  -0.319887864 0.273306493  0.228637752 -0.77795503  0.23148825 -0.775089225  -0.0796297586 -0.484118285
1950202500.000000  -0.302690006 0.242845172  0.295341618 -0.766111574  0.297892958 -0.764884032  0.000837997859 -0.460772906
1980201000.000000  -0.266247607 0.210233774  0.357867105 -0.754000337  0.360394006 -0.755099695  0.0764388131 -0.413415893
2010199500.000000  -0.212748567 0.178700684  0.413051697 -0.744138403  0.417235279 -0.744694239  0.144441322 -0.345494211
2040198000.000000  -0.14140433 0.149243988  0.46269259 -0.73125107  0.465648077 -0.729839404  0.201798022 -0.258427894
2070196500.000000  -0.0583302648 0.124233892  0.505665643 -0.714845419  0.508141762 -0.712771414  0.243760613 -0.156272692
2100195000.000000  0.0315723679 0.103666346  0.540169337 -0.692120518  0.542523085 -0.689112407  0.26915228 -0.0422777057
2130193500.000000  0.123793259 0.0878750344  0.568285475 -0.662909565  0.569977204 -0.658285474  0.272696022 0.0783413401
2160192000.000000  0.212774029 0.0766802924  0.591462623 -0.625315171  0.593801981 -0.621655848  0.253096324 0.197937659
2190190500.000000  0.293925726 0.0706116587  0.612169012 -0.579725554  0.615153045 -0.576021199  0.207826308 0.308885766
2220189000.000000  0.364597157 0.0724063733  0.633251583 -0.525389333  0.636003702 -0.522413768  0.138264222 0.403876361
2250187500.000000  0.423441712 0.0831067462  0.653450341 -0.464261477  0.657033497 -0.462212108  0.0447933693 0.474143013
2280186000.000000  0.469409472 0.104024515  0.671851991 -0.397204021  0.674222102 -0.395513998  -0.0632189443 0.512858193
2310184500.000000  0.50129636 0.134060806  0.689180896 -0.325995512  0.691296577 -0.324780125  -0.176161931 0.51852555
2340183000.000000  0.518265899 0.170296925  0.705402924 -0.251537768  0.706633272 -0.249639471  -0.286630285 0.492724875
2370181500.000000  0.5202671 0.209266579  0.720909598 -0.172875569  0.720452659 -0.171202119  -0.387101415 0.43999146
2400180000.000000  0.508660273 0.245484286  0.733065399 -0.0893929762  0.733243076 -0.0877249835  -0.472952138 0.362464511
2430178500.000000  0.485787975 0.275284883  0.7399515 -0.00439703698  0.73993849 -0.00148655116  -0.537556302 0.264797085
2460177000.000000  0.454624672 0.294429275  0.739861055 0.0825099321  0.739702265 0.08608806  -0.574340329 0.151218987
2490175500.000000  0.418084783 0.301076072  0.734542059 0.167360389  0.733868262 0.171771082  -0.576409814 0.0298299815
2520174000.000000  0.376794513 0.293179625  0.727044365 0.245549627  0.725228742 0.250303601  -0.54236419 -0.0891618536
2550172500.000000  0.330701374 0.268575694  0.717860105 0.317635786  0.716524499 0.320811629  -0.473612846 -0.194752041
2580171000.000000  0.280768817 0.222188828  0.707647462 0.380749418  0.706763334 0.3838789  -0.374069703 -0.279600806
2610169500.000000  0.227993482 0.153776382  0.698010308 0.434067275  0.696056005 0.437219607  -0.250297203 -0.338601093
2640168000.000000  0.17254368 0.0639769431  0.683529693 0.476108866  0.681410825 0.478543598  -0.108613957 -0.369380895
2670166500.000000  0.116154284 -0.0408395072  0.661640839 0.505463055  0.660053194 0.50877392  0.0421922055 -0.370980271
2700165000.000000  0.0634168042 -0.152294262  0.631934093 0.523865743  0.628802254 0.526825537  0.190644581 -0.345747468
2730163500.000000  0.0199340101 -0.262707232  0.59153238 0.533398084  0.5889179 0.536488061  0.328929548 -0.297556425
2760162000.000000  -0.00956159359 -0.365065659  0.543933185 0.538815906  0.541247559 0.543391942  0.447770334 -0.227069765
2790160500.000000  -0.0214805912 -0.455162352  0.491737649 0.543520749  0.488776786 0.548050902  0.543618529 -0.136779506
2820159000.000000  -0.0138297639 -0.531074003  0.433616274 0.548915868  0.431947063 0.552846418  0.612551924 -0.0312323624
2850157500.000000  0.0108258685 -0.590778886  0.372789055 0.554876641  0.371510717 0.557886678  0.6526191 0.0848076581
2880156000.000000  0.0522343217 -0.634271645  0.308672837 0.562992965  0.307831832 0.564456931  0.662772173 0.206745843
2910154500.000000  0.105246348 -0.658548417  0.2423728 0.571713999  0.242351987 0.571833121  0.640449655 0.328451077
2940153000.000000  0.16413437 -0.664743767  0.177450937 0.580293573  0.177599545 0.579302653  0.58673815 0.441437855
2970151500.000000  0.226428863 -0.65536501  0.113332707 0.590393156  0.113155233 0.589091602  0.505388913 0.539631672
3000150000.000000  0.288253606 -0.631356725  0.049581203 0.602863246  0.0474230985 0.60161619  0.402369883 0.616261302
3030148500.000000  0.343829584 -0.596745941  -0.0168825735 0.61640108  -0.0201685674 0.615502916  0.283429406 0.665835867
3060147000.000000  0.385875154 -0.54811005  -0.0884126233 0.627346584  -0.0923005209 0.628029167  0.153268882 0.687501385
3090145500.000000  0.410815931 -0.487516277  -0.163691076 0.637084832  -0.167139376 0.63875478  0.0186639473 0.673950291
3120144000.000000  0.413652534 -0.419579509  -0.239367386 0.645302496  -0.240983954 0.64714756  -0.10719762 0.621168758
3150142500.000000  0.389938721 -0.345329851  -0.310562916 0.65103822  -0.311381825 0.653144167  -0.211630922 0.52915985
3180141000.000000  0.340544595 -0.266423291  -0.372822196 0.657771814  -0.373428432 0.658018134  -0.284197225 0.403280468
3210139500.000000  0.26654106 -0.180837812  -0.425783238 0.663773486  -0.426265887 0.663565793  -0.321005451 0.251064848
3240138000.000000  0.169430542 -0.0864368583  -0.466213542 0.662865071  -0.46763463 0.662300597  -0.319860398 0.0783807146
3270136500.000000  0.0579302568 0.0146146028  -0.494311051 0.649915176  -0.496275518 0.649118136  -0.279286115 -0.10130918
3300135000.000000  -0.058020303 0.11408755  -0.511486874 0.618539846  -0.513962244 0.618736556  -0.201217436 -0.269972333
3330133500.000000  -0.173109135 0.200480204  -0.519393714 0.571101442  -0.522376275 0.571032126  -0.0937165549 -0.411246037
3360132000.000000  -0.283679799 0.261682637  -0.523644044 0.512751727  -0.526277717 0.511928549  0.0333509874 -0.513920942
3390130500.000000  -0.387569609 0.293122544  -0.526627316 0.446654292  -0.528421188 0.445366434  0.171851876 -0.572291136
3420129000.000000  -0.482549197 0.294313223  -0.529052024 0.378228957  -0.529809678 0.376334684  0.309602916 -0.586661226
3450127500.000000  -0.565047895 0.266483476  -0.532871097 0.309134622  -0.532517689 0.306827555  0.440136029 -0.562136627
3480126000.000000  -0.634567995 0.210910756  -0.536737371 0.240099908  -0.536240138 0.237372315  0.556456877 -0.505680563
3510124500.000000  -0.686324315 0.134444653  -0.537872858 0.170926427  -0.537086926 0.168246814  0.653527216 -0.421560058
3540123000.000000  -0.718010728 0.0427198871  -0.538134917 0.103508998  -0.53786663 0.100658666  0.728378143 -0.315495515
3570121500.000000  -0.726304791 -0.0563241696  -0.536810622 0.0370223471  -0.537003979 0.0340853601  0.776191251 -0.195230088
3600120000.000000  -0.711868335 -0.153045613  -0.535062406 -0.0257524215  -0.535110602 -0.0287511831  0.795840735 -0.0705868966
3630118500.000000  -0.678667153 -0.240108745  -0.535609128 -0.0860821642  -0.536241364 -0.0890487611  0.787815144 0.053031332
3660117000.000000  -0.628253421 -0.311784555  -0.539840708 -0.146193299  -0.540969187 -0.149706079  0.753123511 0.171839449
3690115500.000000  -0.561457944 -0.364679824  -0.548078792 -0.207418036  -0.549621048 -0.210503344  0.692943699 0.277956211
3720114000.000000  -0.480150671 -0.392530038  -0.560063373 -0.269990984  -0.562181655 -0.272055731  0.602942518 0.36398735
3750112500.000000  -0.388139163 -0.384171992  -0.574056622 -0.332676511  -0.576294962 -0.333929695  0.484832186 0.420592301
3780111000.000000  -0.28583032 -0.336219488  -0.591961554 -0.387043935  -0.59335833 -0.386907462  0.345374636 0.436179432
3810109500.000000  -0.172320086 -0.254057071  -0.614504517 -0.425338864  -0.615197919 -0.425453843  0.187032327 0.409099882
3840108000.000000  -0.0437508206 -0.150027696  -0.636784739 -0.44459488  -0.636816958 -0.445231678  0.0125636718 0.343735413
3870106500.000000  0.0982588177 -0.0408801687  -0.645299171 -0.447294296  -0.646554681 -0.448121179  -0.167549503 0.247269429
3900105000.000000  0.239311301 0.0633781109  -0.630929521 -0.442132326  -0.632231841 -0.441949547  -0.335667877 0.125905416
3930103500.000000  0.360748788 0.158073356  -0.591858582 -0.438104779  -0.591990974 -0.436877751  -0.470473679 -0.0132598835
3960102000.000000  0.449907923 0.246493069  -0.532360574 -0.440655032  -0.530787801 -0.439629609  -0.553275392 -0.169340244
3990100500.000000  0.50312068 0.333862349  -0.46151883 -0.451115217  -0.459044498 -0.450370928  -0.573835797 -0.335663751
4020099000.000000  0.520722467 0.420578867  -0.38572521 -0.463166238  -0.381897931 -0.463916709  -0.532404895 -0.497119611
4050097500.000000  0.506152139 0.505009841  -0.309075201 -0.47397655  -0.304555813 -0.477313877  -0.436436808 -0.639221491
4080096000.000000  0.465435622 0.584034229  -0.232755139 -0.48434808  -0.229787074 -0.489199287  -0.29843781 -0.747385575
4110094500.000000  0.402834271 0.652522382  -0.157834175 -0.491981052  -0.156949249 -0.497509652  -0.132531126 -0.814195145
4140093000.000000  0.322983962 0.707735542  -0.0846508922 -0.497347339  -0.0849469522 -0.501636369  0.0461466989 -0.835424704
4170091500.000000  0.229869874 0.745888104  -0.0124620558 -0.499505003  -0.013923674 -0.501348519  0.221204419 -0.811864034
4200090000.000000  0.129485756 0.762651752  0.0572004405 -0.496946653  0.0563218674 -0.496844262  0.378190014 -0.747574674
4230088500.000000  0.0304298345 0.75445099  0.123846759 -0.492112937  0.123521696 -0.490848184  0.509301942 -0.652950863
4260087000.000000  -0.0573359726 0.722423296  0.188168811 -0.489457825  0.187820103 -0.487876359  0.610215484 -0.534945093
4290085500.000000  -0.12637959 0.66818307  0.251372946 -0.490765532  0.251454715 -0.48882646  0.675546606 -0.398511857
4320084000.000000  -0.167856132 0.591290682  0.312848571 -0.495572411  0.313223115 -0.493709249  0.69820736 -0.248866378
4350082500.000000  -0.174125994 0.489072824  0.368732786 -0.50835126  0.368568142 -0.506861141  0.674264803 -0.0950982395
4380081000.000000  -0.142377468 0.361050692  0.411590515 -0.527565688  0.411595653 -0.526913336  0.603149318 0.0574067814
4410079500.000000  -0.0767179742 0.204752705  0.434153508 -0.550141306  0.433737139 -0.549704014  0.491451732 0.206945443
4440078000.000000  0.00674055694 0.0252522006  0.430836092 -0.567303728  0.430399236 -0.566793584  0.351314354 0.352571986
4470076500.000000  0.0882369412 -0.159318346  0.408927999 -0.565436134  0.409216151 -0.564553212  0.196515466 0.485406414
4500075000.000000  0.161352692 -0.322747422  0.383308757 -0.538976679  0.384353933 -0.539104047  0.0363390938 0.592566461
4530073500.000000  0.231387311 -0.446874859  0.366680626 -0.495029414  0.367949748 -0.495733588  -0.126831759 0.660757225
4560072000.000000  0.306761401 -0.526668415  0.36316074 -0.44111311  0.364607033 -0.441637833  -0.293392981 0.683014603
4590070500.000000  0.389617747 -0.564276655  0.370136644 -0.380358037  0.371418489 -0.380812531  -0.4580167 0.654295042
4620069000.000000  0.477579137 -0.563939027  0.381524564 -0.315974971  0.382171714 -0.316254287  -0.610554954 0.574072932
4650067500.000000  0.564623822 -0.530879121  0.395082325 -0.25035966  0.394888873 -0.250570437  -0.738650541 0.448955871
4680066000.000000  0.643857378 -0.471422194  0.408175226 -0.185994631  0.407578413 -0.185728605  -0.831721034 0.288026629
4710064500.000000  0.708560036 -0.392912597  0.419817125 -0.122802718  0.419247249 -0.121503599  -0.88246755 0.10281317
4740063000.000000  0.757154311 -0.303463386  0.429990793 -0.0593992129  0.42983815 -0.0579279807  -0.884979693 -0.0952026896
4770061500.000000  0.787918983 -0.207382403  0.438009302 0.00503905033  0.438149192 0.00644750451  -0.835589832 -0.290785498
4800060000.000000  0.799424544 -0.109167837  0.443232261 0.071071746  0.443166039 0.0721425529  -0.737171962 -0.466454383
4830058500.000000  0.789375668 -0.0138079283  0.445579672 0.137389597  0.445206556 0.138050049  -0.598463874 -0.605855499
4860057000.000000  0.756446966 0.071481733  0.446671349 0.203049346  0.446045864 0.203579251  -0.432882509 -0.697950836
4890055500.000000  0.699810885 0.140192165  0.449341396 0.267316462  0.448694207 0.267706377  -0.255191737 -0.735934294
4920054000.000000  0.618268447 0.185106685  0.456444289 0.327676941  0.455610122 0.328201235  -0.0792219015 -0.715716714
4950052500.000000  0.508059722 0.202262878  0.471702257 0.380248363  0.470364063 0.380914371  0.0823141604 -0.637302136
4980051000.000000  0.36435355 0.192681646  0.494586044 0.418273463  0.493000418 0.419428136  0.223370778 -0.503229753
5010049500.000000  0.186253541 0.16586372  0.519369929 0.43346597  0.5173834 0.434634124  0.342871141 -0.323289802
5040048000.000000  -0.0141664418 0.136275934  0.531431952 0.422581299  0.530229709 0.424136591  0.440798581 -0.11618095
5070046500.000000  -0.210734218 0.111786102  0.519006536 0.395418095  0.51796326 0.397556159  0.512391219 0.0921825225
5100045000.000000  -0.379544056 0.0826999393  0.483752708 0.369183673  0.482740989 0.371398369  0.547690309 0.285344272
5130043500.000000  -0.50778581 0.0362767323  0.432515276 0.353224523  0.432073902 0.355372166  0.540408932 0.457701644
5160042000.000000  -0.594787921 -0.0322691603  0.375215496 0.348955756  0.374651706 0.350932903  0.487039723 0.608456689
5190040500.000000  -0.645574059 -0.123165634  0.315800281 0.352320616  0.315219812 0.354153654  0.392442568 0.732343144
5220039000.000000  -0.661169615 -0.230656673  0.256382597 0.360051762  0.255828562 0.361677346  0.263185479 0.8248149
5250037500.000000  -0.641858975 -0.346029745  0.19748767 0.36863211  0.196361981 0.370100013  0.111020721 0.881674412
5280036000.000000  -0.591718083 -0.459797042  0.138695964 0.377113273  0.137473948 0.378079972  -0.0541267541 0.901053366
5310034500.000000  -0.51394242 -0.562498888  0.0797576208 0.3838239  0.0785803553 0.384314647  -0.22198267 0.882240425
5340033000.000000  -0.417099442 -0.647515132  0.0209063611 0.388908357  0.0196606629 0.388920449  -0.384362561 0.827110819
5370031500.000000  -0.30781728 -0.707277176  -0.0384963192 0.392686272  -0.0399247546 0.392385256  -0.53107359 0.736183913
5400030000.000000  -0.195108118 -0.741463507  -0.0976533834 0.395209595  -0.0994855228 0.394651332  -0.652341255 0.61261336
5430028500.000000  -0.085612781 -0.747908078  -0.156670793 0.397390533  -0.158812279 0.396792894  -0.737398621 0.462604831
5460027000.000000  0.0141345096 -0.727232076  -0.214887879 0.400456278  -0.217090664 0.400030796  -0.776480813 0.297658453
5490025500.000000  0.0999947924 -0.676036229  -0.270705652 0.405767519  -0.273060201 0.405568891  -0.76509678 0.13125813
5520024000.000000  0.167878049 -0.593830068  -0.321544873 0.414255434  -0.32358322 0.414635182  -0.700759229 -0.0254093695
5550022500.000000  0.214407024 -0.478591125  -0.362942104 0.426385562  -0.364199554 0.427499877  -0.582592437 -0.163778117
5580021000.000000  0.244632005 -0.334583626  -0.388019027 0.440562375  -0.388582405 0.441826308  -0.41523086 -0.276017833
5610019500.000000  0.268004379 -0.170979722  -0.393936265 0.448281477  -0.394117938 0.449503099  -0.210154206 -0.359441874
5640018000.000000  0.288699252 -0.00241585219  -0.383544752 0.441773168  -0.383568632 0.442544584  0.011874877 -0.406444721
5670016500.000000  0.302474885 0.153115388  -0.365702502 0.415889954  -0.365780274 0.416232974  0.22800127 -0.413466701
5700015000.000000  0.300581218 0.291160104  -0.348222527 0.377480339  -0.348669718 0.378062869  0.422639252 -0.373341192
5730013500.000000  0.275078402 0.400555999  -0.336812817 0.328433921  -0.337398759 0.329082291  0.583819278 -0.288063472
5760012000.000000  0.228370087 0.48834204  -0.328165155 0.274745862  -0.328568625 0.275493143  0.706073044 -0.164446092
5790010500.000000  0.156398429 0.554930064  -0.323731291 0.219786995  -0.324122393 0.220734226  0.785086942 -0.00936465656
5820009000.000000  0.0677923438 0.599121683  -0.319941102 0.163325401  -0.320044922 0.163765651  0.815932482 0.162050087
5850007500.000000  -0.0316735893 0.624382429  -0.317374606 0.108843271  -0.317406191 0.109296641  0.798737614 0.336874149
5880006000.000000  -0.137067474 0.629176542  -0.314844782 0.0552778194  -0.314895468 0.0554238848  0.736714542 0.499363517
5910004500.000000  -0.239684346 0.61551958  -0.312160242 0.00432602316  -0.31186551 0.00439651389  0.639676875 0.639124339
5940003000.000000  -0.337166497 0.584780675  -0.309519062 -0.0456776258  -0.309202871 -0.0457501703  0.514914486 0.750435462
5970001500.000000  -0.422790176 0.537402201  -0.305229716 -0.0942320996  -0.30462823 -0.0949670956  0.371046627 0.828939462
6000000000.000000  -0.492205416 0.473100401  -0.300795674 -0.142435069  -0.300281183 -0.143699957  0.213896114 0.871043686
