! 2-port S-parameters written by miniscope-char acquisition
! instrument: Pico Technology Ltd,PicoVNA-106,10080,5.3.4
! transport: scpi
! endpoint: 127.0.0.1:5025
! demo: false
! calibration: user
! calibration_file: June 2026 Short cable calibration.calx
# HZ S RI R 50
300000.000000  0.0190526 0.00436794514  0.98119421 -8.17288593e-05  0.976107643 0.00523678749  0.0189653084 0.000706029481
30298500.000000  0.0595022181 0.0459247391  0.928599535 -0.250303602  0.928948296 -0.24952161  0.0490128862 0.0510641365
60297000.000000  0.0947714232 0.0364965213  0.834059128 -0.453344328  0.835054598 -0.451939852  0.0635106222 0.059223473
90295500.000000  0.103630189 -0.000693399245  0.699131736 -0.627871143  0.700696793 -0.627421948  0.055320935 0.0520099597
120294000.000000  0.076439441 -0.0433514726  0.531690514 -0.770264077  0.532149576 -0.768898742  0.0255261826 0.0384931955
150292500.000000  0.0125292749 -0.0678898968  0.33021092 -0.863474162  0.331912431 -0.864193914  -0.0234058326 0.0254103155
180291000.000000  -0.0633653413 -0.052752175  0.118172795 -0.905802971  0.119853947 -0.905711067  -0.0793576946 0.0232043579
210289500.000000  -0.113611612 0.000800606683  -0.0926258569 -0.896825304  -0.0913382706 -0.897711669  -0.123537322 0.0307286923
240288000.000000  -0.116349772 0.0647190007  -0.2865887 -0.845392243  -0.285706173 -0.846272569  -0.145425879 0.0417900601
270286500.000000  -0.0695291975 0.104983725  -0.468042885 -0.754888563  -0.46714476 -0.756044042  -0.137419348 0.0361342515
300285000.000000  0.00484371062 0.0941156441  -0.627707565 -0.625274829  -0.627295482 -0.625957092  -0.110729628 0.00707917373
330283500.000000  0.068329864 0.0282947427  -0.755670694 -0.455797069  -0.755816427 -0.458167183  -0.0804725486 -0.0480652081
360282000.000000  0.0839411072 -0.0755087406  -0.832203603 -0.260179051  -0.831495687 -0.26068965  -0.0596466054 -0.117122773
390280500.000000  0.039823828 -0.163408687  -0.855589322 -0.0583821973  -0.857077661 -0.0597742519  -0.053938049 -0.181985812
420279000.000000  -0.0376311072 -0.19950168  -0.833231146 0.138824597  -0.833679181 0.137752891  -0.063264126 -0.224153224
450277500.000000  -0.112085183 -0.145754112  -0.769239799 0.30359156  -0.770022994 0.303139178  -0.0901377434 -0.21096746
480276000.000000  -0.0987140828 -0.0812673924  -0.698415092 0.473889447  -0.700000098 0.47329413  -0.0454578665 -0.160036901
510274500.000000  -0.0517232052 0.000142672167  -0.56143363 0.637799819  -0.561196582 0.636956986  0.0177367443 -0.10492525
540273000.000000  0.0622268059 0.0409409366  -0.37951245 0.755540963  -0.381422724 0.757033482  0.109370993 -0.0497311468
570271500.000000  0.180912256 0.0152678066  -0.171580753 0.803906689  -0.173323275 0.803846633  0.208494434 -0.0169849996
600270000.000000  0.243861626 -0.0765004525  0.0222192214 0.796811895  0.0218869988 0.797723663  0.288127917 -0.00564397858
630268500.000000  0.216921762 -0.175664451  0.197287469 0.7534194  0.196633539 0.754388018  0.327117053 -0.00122580559
660267000.000000  0.103870821 -0.219414364  0.361572672 0.679251632  0.361982727 0.679985933  0.321067554 0.0180243431
690265500.000000  -0.0501683234 -0.145011912  0.515089586 0.555403953  0.514820469 0.556619652  0.2839715 0.0698798478
720264000.000000  -0.126837258 0.0601394325  0.616387444 0.377278015  0.61677849 0.377505287  0.2372394 0.159825344
750262500.000000  -0.0345350773 0.276399827  0.627950344 0.180424584  0.629016829 0.180741878  0.21992637 0.26617558
780261000.000000  0.18209814 0.340929253  0.563723497 0.0631021341  0.5638203 0.0635054651  0.214915851 0.322857231
810259500.000000  0.318342153 0.206555329  0.531443276 0.00215906166  0.532276248 0.001628939  0.163741454 0.378341988
840258000.000000  0.293949986 -0.0050139745  0.503842232 -0.0603108828  0.504163881 -0.0603467517  0.149025339 0.443002178
870256500.000000  0.0501638686 -0.127152512  0.501119048 -0.0969249937  0.50184767 -0.0968696658  0.149969361 0.444960166
900255000.000000  -0.170943633 0.000536802204  0.526017524 -0.171763956  0.528025404 -0.171214004  0.132265192 0.394926646
930253500.000000  -0.192185852 0.158789466  0.527595736 -0.284132361  0.5292189 -0.284081334  0.0885567399 0.314578958
960252000.000000  -0.128260945 0.200477242  0.495200309 -0.416570156  0.496304542 -0.417473039  0.0247510991 0.215310721
990250500.000000  -0.0927452098 0.141893383  0.409719774 -0.554812542  0.410658199 -0.555457895  -0.0700955003 0.11260038
1020249000.000000  -0.123343241 0.0570459745  0.272019099 -0.663630719  0.272731585 -0.664413018  -0.180547507 0.0468273533
1050247500.000000  -0.184064556 0.00586402128  0.103044616 -0.719434518  0.103333554 -0.720539339  -0.2630504 0.0301243699
1080246000.000000  -0.222080053 -0.00979772612  -0.0681395115 -0.727197081  -0.0701817931 -0.726424085  -0.286078937 0.0421494742
1110244500.000000  -0.217426684 -0.0199093438  -0.236688228 -0.696015247  -0.237245075 -0.696731466  -0.240576204 0.0504695026
1140243000.000000  -0.172749157 -0.052861991  -0.400875289 -0.627700375  -0.399749643 -0.628238187  -0.143130653 0.0274496377
1170241500.000000  -0.117441008 -0.119569821  -0.545778649 -0.513252929  -0.545574469 -0.514958557  -0.0273312799 -0.0450556201
1200240000.000000  -0.0796017615 -0.207214572  -0.650401156 -0.361066205  -0.648030565 -0.363579618  0.0584475277 -0.153582733
1230238500.000000  -0.0717819166 -0.283421258  -0.704378421 -0.197125457  -0.703778672 -0.199183633  0.0892556777 -0.26028261
1260237000.000000  -0.0791172003 -0.319920381  -0.719629501 -0.037112081  -0.720564023 -0.0392969639  0.068096956 -0.3217545
1290235500.000000  -0.0747975044 -0.312491084  -0.712791095 0.118187563  -0.714169026 0.118038921  0.0218322336 -0.316512429
1320234000.000000  -0.0408176651 -0.269835001  -0.676670587 0.28107948  -0.678528695 0.280416513  -0.0199282437 -0.238510251
1350232500.000000  0.032638178 -0.212635505  -0.596657891 0.443621083  -0.598205177 0.444477844  -0.02456771 -0.101191548
1380231000.000000  0.13848334 -0.171598024  -0.464436075 0.578907725  -0.464615582 0.579474566  0.0337441021 0.0492321136
1410229500.000000  0.242732922 -0.167588694  -0.303336935 0.659862138  -0.302252446 0.660015642  0.137149946 0.154956999
1440228000.000000  0.306511716 -0.183558147  -0.147962739 0.693451361  -0.147927978 0.693772564  0.236250012 0.190188994
1470226500.000000  0.318735087 -0.190785678  -0.00374992122 0.703477116  -0.00401394572 0.703774244  0.288559036 0.163651783
1500225000.000000  0.289219643 -0.161168861  0.143922654 0.700406963  0.143430572 0.700461618  0.269183121 0.101980788
1530223500.000000  0.23782663 -0.0820736257  0.305772687 0.664180541  0.30496703 0.665464086  0.167677828 0.0361763534
1560222000.000000  0.199933437 0.0428861827  0.46474375 0.573266476  0.464122272 0.574725122  0.0048382711 0.013965519
1590220500.000000  0.200905639 0.175322022  0.580471172 0.43388753  0.580588777 0.435312724  -0.15997013 0.0550147928
1620219000.000000  0.228996299 0.269958448  0.640470186 0.283602841  0.641119192 0.284814023  -0.270889139 0.131009615
1650217500.000000  0.251217122 0.308156278  0.668216476 0.14757139  0.669378971 0.149844382  -0.312212896 0.194391986
1680216000.000000  0.245889882 0.294715536  0.686777376 0.0189861322  0.687580895 0.0204793171  -0.29139893 0.214912227
1710214500.000000  0.190600711 0.242390919  0.692714339 -0.126379431  0.694657028 -0.125434942  -0.225701282 0.174909264
1740213000.000000  0.0708167597 0.180807797  0.659206218 -0.292974525  0.660700208 -0.292911737  -0.143850485 0.0599391554
1770211500.000000  -0.0971740978 0.153598566  0.55924006 -0.449621568  0.560517332 -0.45028823  -0.0998440092 -0.116670944
1800210000.000000  -0.25088069 0.180628355  0.415129267 -0.54984667  0.416153516 -0.550560343  -0.118872932 -0.286660094
1830208500.000000  -0.343504369 0.230815633  0.275126705 -0.593942305  0.275919854 -0.594430617  -0.168347565 -0.394952554
1860207000.000000  -0.372543886 0.264238745  0.158154901 -0.616773116  0.158324638 -0.616925028  -0.208755129 -0.431799951
1890205500.000000  -0.34449331 0.258564224  0.044139061 -0.640410498  0.0441184318 -0.641194277  -0.214057572 -0.403232858
1920204000.000000  -0.270910244 0.189680332  -0.0967054917 -0.66230637  -0.0953895767 -0.662125503  -0.160742369 -0.318903022
1950202500.000000  -0.187414867 0.0346050273  -0.272720801 -0.636474289  -0.271586235 -0.636200631  -0.0208711059 -0.213085889
1980201000.000000  -0.163424162 -0.174526609  -0.43418944 -0.525075938  -0.434318157 -0.526350564  0.184409044 -0.16369465
2010199500.000000  -0.208690928 -0.345536098  -0.521125249 -0.372745867  -0.521837576 -0.375193145  0.362637458 -0.193056604
2040198000.000000  -0.263931804 -0.436537605  -0.549842296 -0.243294946  -0.549929877 -0.245533118  0.460612336 -0.242755749
2070196500.000000  -0.288935371 -0.460202535  -0.568561712 -0.142368899  -0.569111367 -0.143934434  0.484117033 -0.270544761
2100195000.000000  -0.268820637 -0.429276464  -0.598890639 -0.0406874979  -0.599780591 -0.042289828  0.439533272 -0.260458039
2130193500.000000  -0.185700778 -0.353693982  -0.627812225 0.0953793726  -0.628607391 0.0944364139  0.332847212 -0.190639859
2160192000.000000  -0.0177738156 -0.276329433  -0.603741435 0.275149998  -0.60483658 0.274335626  0.20587277 -0.0283088905
2190190500.000000  0.195278946 -0.264149656  -0.487509373 0.431740896  -0.489147347 0.431746513  0.14387769 0.198111153
2220189000.000000  0.35997675 -0.310385238  -0.340072783 0.50525553  -0.341232032 0.505829273  0.163013542 0.384587006
2250187500.000000  0.444747874 -0.35164414  -0.221652592 0.526783043  -0.222590092 0.528100551  0.199201302 0.482451596
2280186000.000000  0.467476143 -0.356786135  -0.130771981 0.544729547  -0.130727419 0.5456189  0.216221119 0.497493704
2310184500.000000  0.441855132 -0.318114728  -0.0361383906 0.578418984  -0.0357888353 0.579299071  0.204266024 0.434978517
2340183000.000000  0.382338397 -0.214383735  0.0987835488 0.610718201  0.0985889992 0.611578581  0.138068182 0.293638331
2370181500.000000  0.337535726 -0.0303677889  0.275872196 0.584189755  0.27487576 0.584284631  -0.0294467819 0.1168898
2400180000.000000  0.359515551 0.174902447  0.418598256 0.468353411  0.418090915 0.468317985  -0.269013187 0.00901199006
2430178500.000000  0.415135403 0.316913375  0.477440653 0.332706818  0.476931244 0.33329104  -0.462869907 -0.00909439127
2460177000.000000  0.446402188 0.388430433  0.494091803 0.233157208  0.493865567 0.233977209  -0.560324587 -0.000231006502
2490175500.000000  0.434187066 0.408892269  0.515779389 0.159146854  0.515366355 0.161050977  -0.569488645 0.00355851115
2520174000.000000  0.367674884 0.386606947  0.560211859 0.0750434188  0.559431043 0.0773951424  -0.492655281 -0.00341986588
2550172500.000000  0.223909273 0.338330743  0.603469572 -0.0579787444  0.603660106 -0.0568221265  -0.322418601 -0.0475561114
2580171000.000000  0.00304971211 0.321844453  0.575739552 -0.23752356  0.577237333 -0.23613662  -0.106277031 -0.186269211
2610169500.000000  -0.209457459 0.377924184  0.459092454 -0.370994091  0.460472362 -0.369779289  0.0402533879 -0.393969217
2640168000.000000  -0.342778775 0.444527862  0.336467102 -0.421040522  0.338283295 -0.420846528  0.0987082515 -0.556116028
2670166500.000000  -0.407282263 0.46700219  0.251798082 -0.44054709  0.253700163 -0.440828764  0.124388807 -0.629817507
2700165000.000000  -0.420115365 0.437546231  0.187994695 -0.472814379  0.189124953 -0.473210101  0.139007635 -0.622100528
2730163500.000000  -0.380097522 0.347113788  0.10610007 -0.52998243  0.107104784 -0.530308679  0.150562964 -0.531169353
2760162000.000000  -0.310025731 0.161946672  -0.0392345048 -0.579717417  -0.037827188 -0.580114446  0.195245896 -0.348520443
2790160500.000000  -0.298647357 -0.105666655  -0.225159484 -0.535772182  -0.223624434 -0.536584469  0.33604422 -0.134673125
2820159000.000000  -0.371893104 -0.329334212  -0.337479048 -0.407706467  -0.3367503 -0.408420175  0.522149462 -0.00521282928
2850157500.000000  -0.437028627 -0.454995002  -0.370330675 -0.296723645  -0.369800737 -0.2970246  0.646031486 0.0507054971
2880156000.000000  -0.44819976 -0.515175074  -0.38541256 -0.228500801  -0.384841029 -0.228295519  0.692074512 0.0860818168
2910154500.000000  -0.408797368 -0.520156805  -0.418747445 -0.178372407  -0.419089798 -0.178283718  0.668424415 0.112370612
2940153000.000000  -0.315676404 -0.468562955  -0.483540757 -0.105698566  -0.482774115 -0.105881811  0.564344139 0.129311103
2970151500.000000  -0.1275558 -0.386816764  -0.542614846 0.0390114306  -0.541510266 0.0401249621  0.358570458 0.18129885
3000150000.000000  0.141378254 -0.376390539  -0.495292688 0.227671971  -0.494297701 0.227522693  0.126375272 0.345319548
3030148500.000000  0.352411245 -0.452423709  -0.364650182 0.327979619  -0.364462164 0.326671835  -0.00127350219 0.540522817
3060147000.000000  0.466521761 -0.508468053  -0.264580287 0.34785332  -0.265892991 0.347183889  -0.0643561155 0.656466157
3090145500.000000  0.52506975 -0.508987667  -0.210031771 0.357432444  -0.211640091 0.357854884  -0.115101091 0.68901556
3120144000.000000  0.543420582 -0.461359573  -0.174093512 0.390068377  -0.174471441 0.391555801  -0.15178911 0.64811451
3150142500.000000  0.517671746 -0.361825988  -0.11785179 0.454924568  -0.117112737 0.456867026  -0.161275997 0.519470407
3180141000.000000  0.469106408 -0.183867864  0.00993538256 0.521065111  0.0111764278 0.521859119  -0.176491232 0.272867489
3210139500.000000  0.478276565 0.0557646242  0.186060218 0.492181385  0.187273942 0.492337299  -0.295796262 -0.0276833597
3240138000.000000  0.548546342 0.245777089  0.288211697 0.381308999  0.289088614 0.380871797  -0.469646084 -0.228898772
3270136500.000000  0.592644766 0.359306944  0.317540517 0.293776957  0.317756937 0.293100651  -0.567952853 -0.336392784
3300135000.000000  0.581292933 0.428256829  0.336860471 0.246084254  0.336607577 0.245196861  -0.577070482 -0.397127966
3330133500.000000  0.518370353 0.459776906  0.378926898 0.213190073  0.377830638 0.212821801  -0.516266659 -0.411633916
3360132000.000000  0.392035205 0.450223164  0.453737631 0.154252412  0.452042031 0.154850932  -0.376323027 -0.369369313
3390130500.000000  0.175134187 0.434803736  0.518836777 0.0181385254  0.517589802 0.0198437287  -0.118832259 -0.313370843
3420129000.000000  -0.075990332 0.490967098  0.478840187 -0.153108686  0.478740901 -0.151155145  0.190548611 -0.354627262
3450127500.000000  -0.250532676 0.576124328  0.374418358 -0.243612782  0.374399314 -0.241901614  0.397750064 -0.452819396
3480126000.000000  -0.356818758 0.608193048  0.297549898 -0.274052989  0.297831667 -0.272257951  0.504621585 -0.501558837
3510124500.000000  -0.422057462 0.579747555  0.25410107 -0.300493304  0.254852653 -0.298786382  0.553852662 -0.487330416
3540123000.000000  -0.442557014 0.493790171  0.221467049 -0.352857524  0.22298725 -0.351812983  0.552903765 -0.418251113
3570121500.000000  -0.412035683 0.328554019  0.152414283 -0.437109509  0.153887016 -0.436806767  0.499545721 -0.275838954
3600120000.000000  -0.391475783 0.0558033831  -0.00376626266 -0.490576237  -0.00249041121 -0.490426388  0.454999281 -0.0292290496
3630118500.000000  -0.464879473 -0.218894241  -0.161687026 -0.424577503  -0.160353459 -0.425645465  0.509395949 0.226901717
3660117000.000000  -0.545526272 -0.388399877  -0.226136676 -0.324147873  -0.225464589 -0.326225505  0.581725142 0.386679311
3690115500.000000  -0.56222709 -0.490908651  -0.247092216 -0.261959291  -0.247693311 -0.263990827  0.60205592 0.481898456
3720114000.000000  -0.519527593 -0.55313975  -0.272395413 -0.232171782  -0.273748385 -0.233012955  0.567085282 0.537897079
3750112500.000000  -0.424051292 -0.563528148  -0.325451213 -0.210234703  -0.326971893 -0.209999713  0.47577603 0.547697605
3780111000.000000  -0.253716003 -0.512382771  -0.41327447 -0.147004938  -0.4140363 -0.145351341  0.306167399 0.498590779
3810109500.000000  0.0182504093 -0.474346906  -0.463598662 0.00859209516  -0.463450185 0.00991239  0.023267343 0.46149284
3840108000.000000  0.276642922 -0.534954158  -0.392168829 0.153080739  -0.390929918 0.153987315  -0.256518566 0.524648383
3870106500.000000  0.431087668 -0.593790665  -0.300497063 0.203200065  -0.299180128 0.203737556  -0.432239175 0.582508316
3900105000.000000  0.527036869 -0.592451178  -0.250147501 0.216882467  -0.249151263 0.21633048  -0.542139964 0.570392737
3930103500.000000  0.58921814 -0.543714532  -0.230718573 0.237243611  -0.230342351 0.236432872  -0.604160417 0.502289976
3960102000.000000  0.613063469 -0.452617818  -0.22123238 0.285585792  -0.222400074 0.284853358  -0.601290376 0.389076342
3990100500.000000  0.593172827 -0.303734489  -0.182979051 0.373323004  -0.184505203 0.373265356  -0.507674067 0.213884167
4020099000.000000  0.574680921 -0.0720812168  -0.0575137213 0.448017786  -0.0588775489 0.448342029  -0.368912908 -0.0772994417
4050097500.000000  0.625211792 0.163911332  0.0899609227 0.411342295  0.0875229483 0.413104054  -0.317198531 -0.40403032
4080096000.000000  0.676810983 0.320322209  0.157328456 0.331311551  0.15662861 0.33456905  -0.304507841 -0.61411388
4110094500.000000  0.675046717 0.423994533  0.18137581 0.280761739  0.183009504 0.283556916  -0.252322957 -0.716706544
4140093000.000000  0.624024655 0.496432525  0.207813735 0.260578728  0.210024143 0.261168343  -0.16740588 -0.740242788
4170091500.000000  0.523553051 0.535254553  0.261913869 0.250463226  0.263114581 0.248969033  -0.069835307 -0.680079935
4200090000.000000  0.3517173 0.540912605  0.354764619 0.205313184  0.353505913 0.203688607  0.0580971105 -0.515300404
4230088500.000000  0.103828339 0.568674774  0.422639655 0.0725896676  0.420849783 0.0724567228  0.288205625 -0.30444626
4260087000.000000  -0.11861541 0.649469819  0.384423029 -0.064474432  0.382954468 -0.064284578  0.555825283 -0.192827127
4290085500.000000  -0.269197408 0.699807979  0.317484374 -0.127463055  0.31611022 -0.127022995  0.723150542 -0.142286607
4320084000.000000  -0.381245557 0.687135008  0.278304718 -0.156103398  0.277457436 -0.155357964  0.792288853 -0.0782119368
4350082500.000000  -0.4604139 0.61598057  0.264930878 -0.192173946  0.26410581 -0.19145751  0.78698991 0.000134897549
4380081000.000000  -0.494024144 0.479911951  0.252441475 -0.261040042  0.252045813 -0.26066163  0.701225558 0.0853055236
4410079500.000000  -0.495679413 0.248294274  0.184405315 -0.361239094  0.184111846 -0.361075116  0.527405078 0.216435286
4440078000.000000  -0.549996245 -0.0445188917  0.0365469464 -0.397064243  0.0362246195 -0.397557001  0.35613829 0.443796507
4470076500.000000  -0.633580755 -0.265628828  -0.0707678587 -0.33795578  -0.0713945699 -0.338718166  0.274116369 0.655251476
4500075000.000000  -0.654194941 -0.411565555  -0.111054827 -0.27998341  -0.112290975 -0.280615877  0.209401615 0.776521811
4530073500.000000  -0.609215963 -0.515344814  -0.1337334 -0.252875507  -0.135072604 -0.252819487  0.124000889 0.827308074
4560072000.000000  -0.515058435 -0.577130047  -0.169219968 -0.248475444  -0.169872829 -0.247736659  0.0234366391 0.816338332
4590070500.000000  -0.367483014 -0.584313823  -0.239720547 -0.242673793  -0.239322766 -0.241804946  -0.0882521165 0.723031609
4620069000.000000  -0.131044229 -0.560032014  -0.338898761 -0.175373559  -0.337763618 -0.175288961  -0.252139013 0.533228674
4650067500.000000  0.151248083 -0.596251627  -0.363820044 -0.0367287705  -0.362741509 -0.0370931328  -0.502299271 0.350502283
4680066000.000000  0.351784465 -0.654535134  -0.306599615 0.0514052085  -0.30592282 0.0507471325  -0.707833417 0.241013496
4710064500.000000  0.482023663 -0.655547591  -0.258462758 0.0817790681  -0.258249204 0.0809902588  -0.813707687 0.132657922
4740063000.000000  0.574026293 -0.604982733  -0.238977181 0.0981223918  -0.239195267 0.09761349  -0.842746674 0.0063117294
4770061500.000000  0.631440899 -0.517292826  -0.241268551 0.125558829  -0.241387657 0.125432462  -0.799450691 -0.119060281
4800060000.000000  0.646113443 -0.387660622  -0.246837191 0.18645401  -0.246719356 0.186563917  -0.666634819 -0.224875237
4830058500.000000  0.635206373 -0.187486677  -0.201479692 0.283805027  -0.201337719 0.283626517  -0.420693804 -0.343645402
4860057000.000000  0.669935443 0.0523503843  -0.0803930003 0.327309687  -0.0803178344 0.32705327  -0.152135521 -0.540767331
4890055500.000000  0.724305666 0.233816961  0.00931990201 0.289431861  0.00942172499 0.288982777  0.0279363333 -0.712679934
4920054000.000000  0.732383365 0.363842365  0.0453195671 0.249859454  0.0454831264 0.249554952  0.168182883 -0.783481222
4950052500.000000  0.692764314 0.466309044  0.0655923259 0.234302034  0.0653493889 0.233823289  0.294255904 -0.772066737
4980051000.000000  0.61318707 0.540527474  0.094901546 0.239273582  0.0944895593 0.238915627  0.390915226 -0.694170186
5010049500.000000  0.48486944 0.579294246  0.157294346 0.247910417  0.156657759 0.247762788  0.442735164 -0.541261149
5040048000.000000  0.281995365 0.605237396  0.254423291 0.207178568  0.253891951 0.207417782  0.482711656 -0.286259425
5070046500.000000  0.0456780216 0.675483306  0.301418479 0.095789585  0.300714539 0.0964040924  0.593456746 -0.00708824993
5100045000.000000  -0.137866324 0.744061703  0.275222755 0.0108212724  0.275051749 0.0117099675  0.704698178 0.183442044
5130043500.000000  -0.279270551 0.753505711  0.246019729 -0.0280391741  0.246346653 -0.0272853281  0.743772524 0.318021322
5160042000.000000  -0.392793306 0.70632605  0.237345931 -0.0538711369  0.237949728 -0.0532358045  0.716732729 0.427224125
5190040500.000000  -0.471352751 0.607276318  0.245689866 -0.0922150695  0.246155082 -0.0916830474  0.631574318 0.502794602
5220039000.000000  -0.512342696 0.440878511  0.246638161 -0.165856375  0.246921327 -0.165725796  0.472940039 0.540581132
5250037500.000000  -0.560980526 0.196688742  0.184785588 -0.253330623  0.18519243 -0.253161006  0.231276943 0.587780038
5280036000.000000  -0.649565221 -0.0393103065  0.0835811591 -0.271484286  0.08405927 -0.271711498  -0.00374438344 0.684033985
5310034500.000000  -0.701106044 -0.216058703  0.0230696519 -0.245328296  0.0235982779 -0.24532398  -0.177185859 0.751612668
5340033000.000000  -0.687783187 -0.357192896  -0.00448675107 -0.226336217  -0.00390988292 -0.226191424  -0.31626729 0.756970058
5370031500.000000  -0.620355265 -0.467844054  -0.0257859938 -0.22590021  -0.0251380199 -0.225733706  -0.429438098 0.706874465
5400030000.000000  -0.50525302 -0.53807882  -0.0623340732 -0.240032959  -0.0614950854 -0.240050825  -0.503345413 0.600136302
5430028500.000000  -0.333371236 -0.566613002  -0.133927167 -0.242148839  -0.133017903 -0.242657241  -0.534779685 0.41432382
5460027000.000000  -0.104725839 -0.599189941  -0.210346063 -0.183669206  -0.209951452 -0.184265918  -0.57817098 0.14747355
5490025500.000000  0.106196334 -0.653908567  -0.223720522 -0.101228087  -0.223665472 -0.101707938  -0.653985721 -0.0975944954
5520024000.000000  0.270567548 -0.674771334  -0.20596841 -0.0545975634  -0.2062287 -0.054907403  -0.688337426 -0.284236789
5550022500.000000  0.403059161 -0.646502592  -0.196069082 -0.0336855348  -0.196346716 -0.0336571186  -0.657374335 -0.433815054
5580021000.000000  0.504031653 -0.580958835  -0.202315396 -0.0177696612  -0.202406625 -0.017578601  -0.569846018 -0.544607678
5610019500.000000  0.56892712 -0.482328086  -0.22394799 0.0134211852  -0.223960211 0.0138877513  -0.431757721 -0.600233673
5640018000.000000  0.594745097 -0.336529707  -0.238545398 0.0783954579  -0.238537837 0.0789264519  -0.22502571 -0.590307306
5670016500.000000  0.622460958 -0.140380008  -0.198241268 0.156865561  -0.198079422 0.157136258  0.0542466213 -0.569537485
5700015000.000000  0.673220861 0.0467893316  -0.126646581 0.183705539  -0.126447163 0.184128188  0.314724029 -0.575467803
5730013500.000000  0.702747812 0.195719358  -0.0801974399 0.176757667  -0.0798549495 0.177122006  0.505441844 -0.552014446
5760012000.000000  0.691701583 0.319003266  -0.0581390501 0.171308316  -0.0576819382 0.171683478  0.641117215 -0.477537417
5790010500.000000  0.646279452 0.419215933  -0.0435348083 0.178199213  -0.0429301147 0.178546916  0.727157041 -0.364551469
5820009000.000000  0.565926764 0.487984246  -0.0215814805 0.201002446  -0.0209989852 0.200877959  0.752719873 -0.224034131
5850007500.000000  0.442835615 0.519359601  0.0292283303 0.226191311  0.0296882297 0.225787506  0.706620152 -0.0530366207
5880006000.000000  0.265156656 0.545765102  0.105768416 0.213792172  0.105879542 0.213307849  0.620630498 0.168443784
5910004500.000000  0.0813793175 0.596945543  0.152194281 0.160576655  0.152042745 0.160121624  0.551988809 0.393318324
5940003000.000000  -0.073437315 0.638085823  0.163652672 0.116107798  0.16330093 0.115820389  0.483989683 0.563328586
5970001500.000000  -0.202194434 0.643268705  0.169450636 0.091057955  0.168933369 0.0912136073  0.393056496 0.676252754
6000000000.000000  -0.306736459 0.609148346  0.186461444 0.0731422228  0.18607743 0.0737902064  0.280865761 0.738155192
